SLAB
PRIMVEC
 14.35095000000000 0.00000000000000 0.00000000000000
 0.00000000000000 14.35095000000000 0.00000000000000
 0.00000000000000 0.00000000000000 20.00000000000000
PRIMCOORD
 78 1
  8     1.43509500000000     1.43509500000000    10.00000000000000    -0.00430704816560    -0.00107759429967     0.00452470106260
 12     0.00000000000000     0.00000000000000    10.00000000000000     0.01723406308449    -0.01969407862036     0.01968483259772
  8     1.43509500000000     4.30528500000000    10.00000000000000    -0.00538351957298    -0.00961062332837    -0.00946784353691
 12     0.00000000000000     2.87019000000000    10.00000000000000     0.00020703327968     0.03581943410355     0.00848980539407
  8     1.43509500000000     7.17547500000000    10.00000000000000    -0.00269765472621    -0.00078584584418    -0.00163525883553
 12     0.00000000000000     5.74038000000000    10.00000000000000    -0.00019951802884     0.00129601677797     0.00373361791328
  8     1.43509500000000    10.04566500000000    10.00000000000000    -0.00234631504398     0.00300449700742    -0.00433503734231
 12     0.00000000000000     8.61057000000000    10.00000000000000     0.00028272660967    -0.00144423442684     0.00194892507195
  8     1.43509500000000    12.91585500000000    10.00000000000000     0.00140557394595     0.00875189848965    -0.01972049236506
 12     0.00000000000000    11.48076000000000    10.00000000000000     0.01149299557573    -0.01505795261355     0.00678167751050
  8     4.30528500000000     1.43509500000000    10.00000000000000     0.00302106596867    -0.01468900893451    -0.01949703836036
 12     2.87019000000000     0.00000000000000    10.00000000000000    -0.02129531149022    -0.01326629219705     0.00589592384523
  8     4.30528500000000     4.30528500000000    10.00000000000000     0.00102012955783    -0.00532037536962    -0.01800494508461
 12     2.87019000000000     2.87019000000000    10.00000000000000     0.00654936258463     0.03487035927211     0.01632188756650
  8     4.30528500000000     7.17547500000000    10.00000000000000     0.00229114272399     0.00152399388064    -0.00143897212902
 12     2.87019000000000     5.74038000000000    10.00000000000000     0.00220607020835    -0.00015186571304     0.00588044345822
  8     4.30528500000000    10.04566500000000    10.00000000000000    -0.00019851722389     0.00934956902816    -0.01025856023986
 12     2.87019000000000     8.61057000000000    10.00000000000000    -0.00064392363251    -0.00206197725317     0.00133500418483
  8     4.30528500000000    12.91585500000000    10.00000000000000    -0.00182046465881     0.00698733366980    -0.00501049877907
 12     2.87019000000000    11.48076000000000    10.00000000000000    -0.01826078393449    -0.02290184171990     0.00629875814156
  8     7.17547500000000     1.43509500000000    10.00000000000000    -0.00027583392483    -0.01274699507977    -0.01807595720189
 12     5.74038000000000     0.00000000000000    10.00000000000000    -0.00201979483139     0.00139653765686    -0.00291793061534
  8     7.17547500000000     4.30528500000000    10.00000000000000    -0.00064813437988    -0.00821476969267    -0.01733019763396
 12     5.74038000000000     2.87019000000000    10.00000000000000    -0.00809632637424     0.03946008963635     0.02476546019496
  8     7.17547500000000     7.17547500000000    10.00000000000000    -0.00164941361764     0.00043563301245    -0.00119467077302
 12     5.74038000000000     5.74038000000000    10.00000000000000    -0.00033488594941    -0.00160019516546     0.00514248810242
  8     7.17547500000000    10.04566500000000    10.00000000000000    -0.00163187154472     0.00564262790799    -0.01465722496855
 12     5.74038000000000     8.61057000000000    10.00000000000000     0.00073812971012    -0.00058076358207     0.00351022470165
  8     7.17547500000000    12.91585500000000    10.00000000000000    -0.00173899060131     0.01641627878922    -0.01893004040768
 12     5.74038000000000    11.48076000000000    10.00000000000000     0.00606438130996    -0.03542893258778     0.02184862293689
  8    10.04566500000000     1.43509500000000    10.00000000000000    -0.00281234095359    -0.01292822073320    -0.02020508517219
 12     8.61057000000000     0.00000000000000    10.00000000000000     0.00176843837610    -0.00372929903257     0.00243322028663
  8    10.04566500000000     4.30528500000000    10.00000000000000    -0.00009092654267    -0.00652523692883    -0.01570325807739
 12     8.61057000000000     2.87019000000000    10.00000000000000     0.00474186756818     0.04167821953408     0.01856184015633
  8    10.04566500000000     7.17547500000000    10.00000000000000    -0.00086043355210     0.00001460006285    -0.00134122558453
 12     8.61057000000000     5.74038000000000    10.00000000000000    -0.00006273507282    -0.00034859851541     0.00402571381381
  8    10.04566500000000    10.04566500000000    10.00000000000000    -0.00109603620867     0.00691467989346    -0.01624145898198
 12     8.61057000000000     8.61057000000000    10.00000000000000     0.00035444066695    -0.00016292927482     0.00350965875767
  8    10.04566500000000    12.91585500000000    10.00000000000000    -0.00525230825997     0.01465542579253    -0.01052479329409
 12     8.61057000000000    11.48076000000000    10.00000000000000    -0.00299576074140    -0.03466091448768     0.02299889178762
  8    12.91585500000000     1.43509500000000    10.00000000000000     0.00383309915340    -0.00687099319778    -0.01266371813978
 12    11.48076000000000     0.00000000000000    10.00000000000000    -0.00154772791480    -0.00697347434398    -0.00202301715265
  8    12.91585500000000     4.30528500000000    10.00000000000000     0.00492202377742    -0.00942576267416    -0.01233287459886
 12    11.48076000000000     2.87019000000000    10.00000000000000    -0.00591330873203     0.03776622739516     0.01920437508994
  8    12.91585500000000     7.17547500000000    10.00000000000000     0.00293713699276    -0.00013594751708    -0.00170129418380
 12    11.48076000000000     5.74038000000000    10.00000000000000    -0.00113166625823     0.00038149922782     0.00428922219776
  8    12.91585500000000    10.04566500000000    10.00000000000000     0.00512160696551     0.00758051884340    -0.00820358963683
 12    11.48076000000000     8.61057000000000    10.00000000000000    -0.00108047348186     0.00021793515899     0.00503200044438
  8    12.91585500000000    12.91585500000000    10.00000000000000    -0.00094907540701     0.01039028811472     0.00226193526631
 12    11.48076000000000    11.48076000000000    10.00000000000000     0.00123119499929    -0.03082967423146     0.02249625830886
 26     2.91995523867709     0.27064283345824    13.94335469905544     0.00499755068005     0.00425612508965    -0.02719225669258
 26     1.55902095421032     1.48128604764995    12.24060154711596    -0.00055813000140    -0.01105159739012     0.00845666546053
 26     5.73824503054904     2.69378557493947    13.42189080998418    -0.00173245111764    -0.01837832060260    -0.00718798546642
 26    -3.01501609056164    14.37366932137953    13.67309876491003     0.00672858672200     0.00291722765872     0.02062830997995
 26     4.38474282673135    13.07278886575272    12.12782660891644     0.01319341736936     0.00238662127961     0.02458420239068
 26     3.15915284667978     2.89381135900825    13.49656149766691    -0.00090492903658    -0.03898294914653    -0.00714689050684
 26     4.24004176976116     1.20032140888281    12.17868005439905     0.00564702782099     0.02598660940574    -0.01149358676678
 26     0.04223539032556     0.23939001080762    13.62706867585686    -0.02008094084939     0.02251285363187    -0.01203280452715
 26     8.51453769047555    11.61049826507175    13.32864706921287     0.00134628657244     0.00741795785409     0.00711416940785
 26     7.95308756872558    14.85268175611641    15.83177096584247    -0.00526780619411     0.00452708773460    -0.01278511947957
 26     7.20101938879984     1.34578173136538    12.06456049883077    -0.01468356882833     0.02565844389215    -0.01464408445598
 26     9.95492146508312     1.45805330604935    14.85219406054301    -0.00023595966486     0.01009324249506     0.03120797927553
 26     5.75551454978872    14.45488057433043    13.73667424300204    -0.01223618643120    -0.01721575108627     0.00588719118665
 26     5.79428704147878    11.53399339707101    13.36371460839377    -0.03213110360516     0.03183550393372     0.00200921798634
 26     7.06747277213344    13.13982695841909    12.18074861826476    -0.00680958471235    -0.02159417729617    -0.03993900279081
 26     8.56476618006373     0.03070673779002    13.50692930245021    -0.00713902857865    -0.00020640769127    -0.00376029966595
 26     9.98218559955894     1.35604738802833    12.17397476148289     0.01186959767816     0.02539619318113    -0.02832425560200
 26    11.07595702833730    11.62487279173993    13.57284650125171     0.00080833854948     0.02615346412579    -0.00437914649657
 26     9.65515333601997    13.07708635628929    15.01973405054874     0.02134502730786    -0.00722732090722     0.00467623021939
 26    12.73916366298259    13.15429498606894    12.37561225910812     0.01477097729977    -0.02195767169516    -0.02937096533729
 26    12.79711888791002     1.30473761397664    12.10858195216293     0.02012675517959    -0.00760500134537     0.00483916370737
 26    11.36020732550212     2.77193812262617    13.42399254968079     0.01740624256003    -0.00786525496536    -0.00092365761204
 26     8.56722161293732     2.81700630653807    13.43456376775754    -0.00010341260832    -0.00928927034965    -0.01125783571040
 26     9.96292900200783    13.09756720979076    12.14648751671258     0.02008492449646    -0.03318899423050    -0.02209993262117
 26     7.12977054194571    12.85381536453094    14.83451426670590    -0.01631093947926    -0.01315164645831     0.02005079689628
  5     4.32368205501254    13.07108004109196    14.11807462047004     0.01423126587935    -0.00985731439884     0.00096680380250
  5     7.22404732535795     1.44540784043199    14.11067241782960    -0.00897747109636     0.03165064379484     0.04993305603856
  5    12.77918941792354     1.44301908693090    14.06968862056956    -0.00915618790563    -0.00352273533435     0.01780752667895
