SLAB
PRIMVEC
 14.35095000000000 0.00000000000000 0.00000000000000
 0.00000000000000 14.35095000000000 0.00000000000000
 0.00000000000000 0.00000000000000 20.00000000000000
PRIMCOORD
 78 1
  8     1.43509500000000     1.43509500000000    10.00000000000000    -0.00554621319492    -0.00393570375869    -0.02961164895548
 12     0.00000000000000     0.00000000000000    10.00000000000000    -0.00423730808873    -0.00160177083743     0.01925366142193
  8     1.43509500000000     4.30528500000000    10.00000000000000    -0.00517687450142    -0.00501329909276    -0.02035666182700
 12     0.00000000000000     2.87019000000000    10.00000000000000    -0.00148368813684     0.00135058118160    -0.01065040499225
  8     1.43509500000000     7.17547500000000    10.00000000000000    -0.00229697339505     0.00098504063888    -0.01036895285423
 12     0.00000000000000     5.74038000000000    10.00000000000000     0.00350446476606     0.00290868245113     0.02399877904337
  8     1.43509500000000    10.04566500000000    10.00000000000000    -0.00267198403076     0.00123100049180    -0.00594849625434
 12     0.00000000000000     8.61057000000000    10.00000000000000     0.00313935080990    -0.00203072300689     0.02128053088732
  8     1.43509500000000    12.91585500000000    10.00000000000000    -0.00626445836262     0.00868078351494    -0.02122858496717
 12     0.00000000000000    11.48076000000000    10.00000000000000     0.00775658683585    -0.00622070311445     0.02335127639480
  8     4.30528500000000     1.43509500000000    10.00000000000000    -0.00262399588920    -0.00244043702406    -0.00526238018588
 12     2.87019000000000     0.00000000000000    10.00000000000000     0.00190554936377    -0.00032579794134    -0.01289734859323
  8     4.30528500000000     4.30528500000000    10.00000000000000    -0.00257033205235    -0.00812042789918    -0.00656754164332
 12     2.87019000000000     2.87019000000000    10.00000000000000    -0.00285663757578    -0.00241190211164     0.02395018072588
  8     4.30528500000000     7.17547500000000    10.00000000000000     0.00615875914550     0.00103488716043    -0.01246784931757
 12     2.87019000000000     5.74038000000000    10.00000000000000    -0.00019318989358     0.00777316962031    -0.00529665481429
  8     4.30528500000000    10.04566500000000    10.00000000000000     0.00659313665449    -0.00251851118806    -0.02003758566412
 12     2.87019000000000     8.61057000000000    10.00000000000000    -0.00461260851933     0.00063666387740     0.02166895437716
  8     4.30528500000000    12.91585500000000    10.00000000000000     0.00153035262617     0.00268677257708    -0.03047110520446
 12     2.87019000000000    11.48076000000000    10.00000000000000     0.00248449338789    -0.00170641372126    -0.00758399694388
  8     7.17547500000000     1.43509500000000    10.00000000000000    -0.00546294736055    -0.00540929815382    -0.01439392368429
 12     5.74038000000000     0.00000000000000    10.00000000000000     0.00759873449726     0.00663606728537     0.01877015662540
  8     7.17547500000000     4.30528500000000    10.00000000000000    -0.00712364541207     0.00344972413336    -0.01405980158288
 12     5.74038000000000     2.87019000000000    10.00000000000000     0.01361813820433    -0.01044761777927     0.02109506527814
  8     7.17547500000000     7.17547500000000    10.00000000000000     0.00059447315587     0.00572008572703    -0.03521354006335
 12     5.74038000000000     5.74038000000000    10.00000000000000     0.00607588862247    -0.00087097328251    -0.01141911120155
  8     7.17547500000000    10.04566500000000    10.00000000000000     0.00082864897767    -0.00424782645138    -0.03287101427121
 12     5.74038000000000     8.61057000000000    10.00000000000000    -0.00187065781195     0.00081774643733     0.01045588250717
  8     7.17547500000000    12.91585500000000    10.00000000000000    -0.00802816572326     0.00278052675083    -0.00868703912386
 12     5.74038000000000    11.48076000000000    10.00000000000000     0.00023984741967     0.00245775485863    -0.01375847120360
  8    10.04566500000000     1.43509500000000    10.00000000000000     0.00558452936595    -0.00628890143981    -0.01401490020412
 12     8.61057000000000     0.00000000000000    10.00000000000000    -0.00398200225600     0.01055131572676     0.01828819844635
  8    10.04566500000000     4.30528500000000    10.00000000000000     0.00156939864992     0.00906187247458    -0.02799771939473
 12     8.61057000000000     2.87019000000000    10.00000000000000     0.00189537271541    -0.01895621629791    -0.00320145607652
  8    10.04566500000000     7.17547500000000    10.00000000000000    -0.00202593849168     0.01015716813095    -0.03372648639730
 12     8.61057000000000     5.74038000000000    10.00000000000000     0.00036155849428    -0.00425080749622     0.01006731843015
  8    10.04566500000000    10.04566500000000    10.00000000000000    -0.00170093856232    -0.00473922482705    -0.02980520718693
 12     8.61057000000000     8.61057000000000    10.00000000000000    -0.00007240037163    -0.00242519266182     0.00037457597800
  8    10.04566500000000    12.91585500000000    10.00000000000000     0.00423908999151     0.00209627537162    -0.00495811118259
 12     8.61057000000000    11.48076000000000    10.00000000000000    -0.00440607714329     0.00862739996763     0.01351706029987
  8    12.91585500000000     1.43509500000000    10.00000000000000     0.00756597109761    -0.00491903777198    -0.01539380340086
 12    11.48076000000000     0.00000000000000    10.00000000000000    -0.01127678285077     0.01265371615075     0.02301010005285
  8    12.91585500000000     4.30528500000000    10.00000000000000     0.00338203281937     0.00401422128260    -0.02971868269254
 12    11.48076000000000     2.87019000000000    10.00000000000000    -0.00154545999658    -0.00165956372685    -0.01143612294001
  8    12.91585500000000     7.17547500000000    10.00000000000000     0.00256917680236     0.00056216243555    -0.00408117588840
 12    11.48076000000000     5.74038000000000    10.00000000000000    -0.00375353154391    -0.00077718340790    -0.01215571839646
  8    12.91585500000000    10.04566500000000    10.00000000000000     0.00088602092695     0.00164917551179    -0.00380638910331
 12    11.48076000000000     8.61057000000000    10.00000000000000     0.00147978294603    -0.00249013767912     0.02158148753614
  8    12.91585500000000    12.91585500000000    10.00000000000000     0.00719433157518     0.00707261839849    -0.00794884968848
 12    11.48076000000000    11.48076000000000    10.00000000000000    -0.00124323417016    -0.00143728294231    -0.01125558828164
 26     1.25848090696549     1.35659634896655    12.19710582214148     0.01010289609290     0.00244829288057    -0.00709614620431
 26     0.74704129441796     3.71389966963353    12.38007476761797     0.01101370299163     0.00427424657204     0.02494957098815
 26     2.00264354510821     5.81992671327083    12.49293764033333     0.01823716564455    -0.00335693365665     0.01889366451546
 26     2.34782601287894    11.01673337795824    12.53124200927701     0.01260249975149    -0.00073478037579     0.03198760471775
 26     1.79538935286384    13.33882658126409    12.27474661805289    -0.02220633265810    -0.01358183151585     0.00225099998138
 26     3.59712987126457     0.70629766555342    12.42748959936988     0.00009103368221     0.00392089392905     0.02339103371220
 26     4.21286356677404     4.64028158832785    12.24773277212798    -0.02110162032598    -0.00336436251268    -0.00344716050179
 26     4.80503989201862     6.92361329859839    12.28005419860154    -0.03083643899110    -0.00581807063848    -0.00343391489695
 26     4.77692817563830    10.36682524245367    12.29127316665590    -0.02868567075919    -0.00365871131538    -0.00024108080307
 26     4.15310796610718    12.70119678569777    12.22714563626562     0.00297802288205     0.01001811045287    -0.01043650714996
 26     8.52016742859955     3.76011012650421    12.51685582005595    -0.01270883208622    -0.01001942560147     0.03366334220067
 26     6.62056745518379     5.18541400796282    12.46417728560018    -0.01224851828727    -0.01638976908873     0.02367824925366
 26     7.32842177657919     7.41944912681980    12.23097466666598     0.00444028479774     0.00844559611093    -0.00954518281352
 26     7.26831684819094     9.91851702924829    12.21027912748233     0.00408670937250     0.00268376720443    -0.01488458507242
 26     6.56933288087274    12.18019189876884    12.43083942135562     0.01247010551920     0.00818758738621     0.01688566489043
 26    10.72931852262060     2.74539330515818    12.49084017923700    -0.00286843998833    -0.01426114833017     0.03125105403755
 26    10.46377496138836     5.05931974169365    12.38723089850000    -0.00289140209686    -0.00640205056362     0.00691389139615
 26     9.85201925117706     7.37247118061326    12.23226853608485     0.01452504167620     0.00522979282722    -0.00358009462936
 26     9.77585067486244     9.90798835771536    12.23278449006006     0.01132962056689     0.00595022258785    -0.01145287348140
 26    10.39036876938245    12.28935575896313    12.37588851563516     0.00382578457501     0.00977817130362    -0.00112385765640
 26    13.20656916585695     1.91006340363980    12.28884325558480    -0.00209943827373    -0.01377639045359     0.00551560612922
 26    12.72711694234821     4.25517286506308    12.21838522148054     0.02430293300635    -0.00239502423063    -0.01931946372076
 26    12.25722927501021     6.67213279572761    12.38919575353742     0.00045523587425     0.02077125737721     0.01078614544522
 26    12.10451874861343    10.52809578320442    12.43846034550449     0.01104497506481    -0.00241844932009     0.01103607813497
 26    12.77981414238214    12.86795155411725    12.27947838942517     0.00133251115025    -0.00663285217059    -0.00829897794911
  5     5.76856209318300     8.64285609698907    12.55198531022045     0.00100504514878    -0.00004538937865     0.02648560415282
  5     8.52911740403200    11.46623905720672    12.53243287125932    -0.00989392429250     0.00091147522014     0.02793739725866
  5     8.57557628053734     5.79551319245158    12.53693112468851    -0.00591129826436     0.00348397752743     0.02785025065088
