SLAB
PRIMVEC
 14.89166881178869 0.00000000000000 0.00000000000000
 0.00000000000000 14.89166881178869 0.00000000000000
 0.00000000000000 0.00000000000000 41.48916688117887
PRIMCOORD
 75 1
  8     1.48916688117887     1.48916688117887    10.00000000000000     0.00140708544193     0.00106045060942    -0.02740738272877
 12     0.00000000000000     0.00000000000000    10.00000000000000     0.00503943096003     0.02022855159065     0.02541457716039
  8     1.48916688117887     4.46750064353661    10.00000000000000    -0.00315731749818     0.00660541300549    -0.01288949112253
 12     0.00000000000000     2.97833376235774    10.00000000000000    -0.01059990234262    -0.01223402574715     0.01854874350988
  8     1.48916688117887     7.44583440589435    10.00000000000000     0.00126650124751    -0.01278477571826    -0.02253716419716
 12     0.00000000000000     5.95666752471548    10.00000000000000    -0.01987582918065    -0.01216282014430     0.01219982983199
  8     1.48916688117887    10.42416816825208    10.00000000000000    -0.00388464756473     0.00284147367173    -0.03740045473207
 12     0.00000000000000     8.93500128707321    10.00000000000000     0.01967537708563     0.01412727827558     0.01818757917921
  8     1.48916688117887    13.40250193060982    10.00000000000000     0.00321109323009    -0.00914934501016    -0.00785604308211
 12     0.00000000000000    11.91333504943095    10.00000000000000     0.02590179084182    -0.02654968922210     0.01029265742867
  8     4.46750064353661     1.48916688117887    10.00000000000000     0.01031038006978     0.00173142027850    -0.01517176389453
 12     2.97833376235774     0.00000000000000    10.00000000000000    -0.00377457880191     0.00126015527980     0.02616748611421
  8     4.46750064353661     4.46750064353661    10.00000000000000     0.01061427226115     0.00132450878411    -0.02865677178434
 12     2.97833376235774     2.97833376235774    10.00000000000000    -0.00115375501923     0.00122454608760     0.02184420817139
  8     4.46750064353661     7.44583440589435    10.00000000000000     0.01617596607535     0.00315531308385    -0.02273967015508
 12     2.97833376235774     5.95666752471548    10.00000000000000     0.03337816053418    -0.00308978590346     0.01589491679733
  8     4.46750064353661    10.42416816825208    10.00000000000000     0.00275239767510    -0.00116229507609     0.00364469199675
 12     2.97833376235774     8.93500128707321    10.00000000000000    -0.00008787938376     0.00175467064126     0.02953377939082
  8     4.46750064353661    13.40250193060982    10.00000000000000     0.00362437428583     0.00259396609685    -0.03717951965094
 12     2.97833376235774    11.91333504943095    10.00000000000000    -0.00280647845400    -0.00136158695123    -0.00851272215465
  8     7.44583440589435     1.48916688117887    10.00000000000000    -0.00361068564911     0.01303814988249    -0.03296292972678
 12     5.95666752471548     0.00000000000000    10.00000000000000    -0.01713215181509    -0.01293847768228     0.01862281024620
  8     7.44583440589435     4.46750064353661    10.00000000000000     0.00201101950255     0.00595483116890     0.00597421465034
 12     5.95666752471548     2.97833376235774    10.00000000000000    -0.01416717277027     0.01482184399861     0.02851519830552
  8     7.44583440589435     7.44583440589435    10.00000000000000    -0.00594872053544     0.00760500658520    -0.00767887728890
 12     5.95666752471548     5.95666752471548    10.00000000000000    -0.03469921430363    -0.00627374239046     0.01781704851606
  8     7.44583440589435    10.42416816825208    10.00000000000000    -0.00477446064136    -0.01241501354079    -0.02140830967983
 12     5.95666752471548     8.93500128707321    10.00000000000000    -0.01115416299794     0.00950136576567     0.01194219854370
  8     7.44583440589435    13.40250193060982    10.00000000000000     0.01078284691284     0.00163654906543    -0.02443564282147
 12     5.95666752471548    11.91333504943095    10.00000000000000     0.00074042268619    -0.00078852862946     0.02031633806744
  8    10.42416816825208     1.48916688117887    10.00000000000000    -0.00241042665268    -0.00140792988140     0.00205319533136
 12     8.93500128707321     0.00000000000000    10.00000000000000    -0.00122650577728    -0.00655954425070    -0.02617717437969
  8    10.42416816825208     4.46750064353661    10.00000000000000    -0.00927986114149    -0.00443691885170    -0.02681814862602
 12     8.93500128707321     2.97833376235774    10.00000000000000     0.01332329548498     0.01193121359643     0.02013505107147
  8    10.42416816825208     7.44583440589435    10.00000000000000    -0.01047980406350    -0.00387207572165    -0.00541234574058
 12     8.93500128707321     5.95666752471548    10.00000000000000     0.02461134024381    -0.01822842809418    -0.03204388756057
  8    10.42416816825208    10.42416816825208    10.00000000000000    -0.00021722014405    -0.00334975544581    -0.02892115628939
 12     8.93500128707321     8.93500128707321    10.00000000000000     0.01042844427766     0.03454067107059     0.01832954896305
  8    10.42416816825208    13.40250193060982    10.00000000000000    -0.00259580436415     0.00350997746093    -0.02756137382230
 12     8.93500128707321    11.91333504943095    10.00000000000000    -0.00413493583377    -0.03191152758199     0.02268897400427
  8    13.40250193060982     1.48916688117887    10.00000000000000    -0.01442389886630    -0.00254927267269    -0.01662932465846
 12    11.91333504943095     0.00000000000000    10.00000000000000     0.01466155397277     0.01368960706696     0.02193352605857
  8    13.40250193060982     4.46750064353661    10.00000000000000     0.00336078397309     0.00037995472688    -0.02461892815159
 12    11.91333504943095     2.97833376235774    10.00000000000000     0.01538508090446     0.01573138924489     0.01085011098063
  8    13.40250193060982     7.44583440589435    10.00000000000000    -0.00742532284218     0.01112284647446    -0.03058538884842
 12    11.91333504943095     5.95666752471548    10.00000000000000     0.00941265454214    -0.02441469801410     0.02744476799702
  8    13.40250193060982    10.42416816825208    10.00000000000000    -0.00247126946883    -0.00212103281492    -0.02377174119226
 12    11.91333504943095     8.93500128707321    10.00000000000000    -0.02451988659304     0.01226626876161     0.01345636489575
  8    13.40250193060982    13.40250193060982    10.00000000000000    -0.00071640267712    -0.00618146820334    -0.01433711883944
 12    11.91333504943095    11.91333504943095    10.00000000000000    -0.01211740841279    -0.01180766953266     0.02358331380745
 27     4.16142525971732    -1.70563351571703    12.61413590074565    -0.01769934079700     0.01766254953373    -0.03122351187495
 27     1.45734410963776     4.76751226380023    12.08483645911631     0.00944534942260    -0.01373210929412    -0.01819463215838
 26     1.49972117668838     7.14417133626289    12.11762644956535     0.01107397761341     0.00812515254789    -0.02466795082818
 26     0.31762949888926     8.98663939106258    12.90360554194366    -0.00271769569305     0.01326073282370     0.03282675165910
 26     1.82724928764669    13.08219114473179    12.15647537972175    -0.04779715631712     0.00202381792826    -0.00191006366295
 27     4.38477794263906     1.51435280827887    12.10215808897444    -0.00051188683812    -0.00854205444585    -0.01172864542954
 26     2.85282333947535     3.06723749319795    12.83107299937107     0.00415578391012    -0.00514646848367     0.01782700680707
 27     2.66853912936073     9.02536815212325    12.88025765118082     0.00937644476384     0.01011916595026     0.01199712794743
 26     4.11426921541081    10.82668643602034    12.19313502909609    -0.00395741803949    -0.00660546882803    -0.00909441621936
 26     5.83972278715564    14.75924944775726    12.83345661110858    -0.01263793659544     0.00642612685667     0.04288663131782
 27     7.63424131270216     1.15745574810882    12.03294246946345    -0.00915481464287     0.02141552586408    -0.00313383286857
 26     7.89155068050534     4.97525127902392    12.16643577015678    -0.00147786248214     0.00138064821074     0.00117064654720
 27     7.77933163424359     7.25402573009131    12.02417146961474     0.00968034478410    -0.02087284090550     0.00080671534269
 26     6.07644182115405    12.09805376116003    12.88316463922008     0.01983957129499    -0.00648047861318     0.02388429036213
 26     7.77334370121597    13.72669702089020    12.11401238784551     0.00484235023753    -0.00432597292178    -0.00510515700239
 26     9.96539011875003     1.05506963541939    12.15508656176494    -0.01118557175771    -0.00998142143407     0.01384055001627
 27    12.12060052958997     6.08913415488071    12.91373034215438    -0.01901923027863    -0.00322682369183     0.01028658860171
 26    10.14320679639513     7.04013765691843    12.13395113885242     0.01012457977309     0.01034552743402    -0.00412612941280
 26    11.78757091887743    11.92427239354062    12.86494713332854    -0.01289650299174    -0.00844459214032     0.02903774790740
 26    10.17117961782336    13.56792959153566    12.10359060021634     0.03453424908337     0.00496922738408    -0.00637527389180
 26    15.14950310470932    -0.21945832118912    12.97713893839703     0.01511321608261    -0.00051351479812     0.01032937094864
 26    14.49722473462882     5.98416657655039    12.88158376149079     0.00731091554570    -0.01128801541246     0.02737549017787
 26    13.33929102737213     7.81550476948456    12.08709686149652    -0.01649234311154    -0.01232724610052    -0.01609768409492
 26    13.30530532532961    10.23608028769816    12.11286946125737     0.01196192310828     0.04102826213619    -0.01559290770967
 26    13.64136994005131    13.10803794037077    12.10108639400035    -0.00133070046758    -0.00622174521327    -0.01348463958555
