SLAB
PRIMVEC
 14.89166881178869 0.00000000000000 0.00000000000000
 0.00000000000000 14.89166881178869 0.00000000000000
 0.00000000000000 0.00000000000000 41.48916688117887
PRIMCOORD
 75 1
  8     1.48916688117887     1.48916688117887    10.00000000000000     0.00710144012668    -0.00208096694334     0.00159045164039
 12     0.00000000000000     0.00000000000000    10.00000000000000    -0.00098927076828     0.01330386542782    -0.00466641791641
  8     1.48916688117887     4.46750064353661    10.00000000000000    -0.00047541362201     0.00109974398717    -0.02284120160095
 12     0.00000000000000     2.97833376235774    10.00000000000000     0.01944338613465     0.01674695166214     0.01540403889492
  8     1.48916688117887     7.44583440589435    10.00000000000000    -0.00434067048478     0.00697672417236    -0.00275575262736
 12     0.00000000000000     5.95666752471548    10.00000000000000     0.02624932857084    -0.01209146499460     0.02361049367717
  8     1.48916688117887    10.42416816825208    10.00000000000000     0.01392971679527     0.00356092448547    -0.07327737152372
 12     0.00000000000000     8.93500128707321    10.00000000000000    -0.01703946541722    -0.00280539038434    -0.00435805375720
  8     1.48916688117887    13.40250193060982    10.00000000000000     0.00091212883198     0.00169338918905    -0.01304859916996
 12     0.00000000000000    11.91333504943095    10.00000000000000    -0.01358659299668    -0.00710256330104     0.02307856775529
  8     4.46750064353661     1.48916688117887    10.00000000000000    -0.00540666049729     0.00015929282614    -0.00760234389635
 12     2.97833376235774     0.00000000000000    10.00000000000000     0.02770324192660    -0.00025642919780     0.01517383996369
  8     4.46750064353661     4.46750064353661    10.00000000000000     0.00330083678527     0.00306906762170    -0.00585778861063
 12     2.97833376235774     2.97833376235774    10.00000000000000     0.01285344767663     0.01511663728008     0.00841680653651
  8     4.46750064353661     7.44583440589435    10.00000000000000     0.00272726068296     0.00839625545830    -0.01318990007749
 12     2.97833376235774     5.95666752471548    10.00000000000000     0.00526073956327    -0.00685419480442     0.01412353964384
  8     4.46750064353661    10.42416816825208    10.00000000000000     0.00439071211504    -0.00013791366975    -0.00351166804041
 12     2.97833376235774     8.93500128707321    10.00000000000000     0.01119749875920    -0.04156649344222     0.01853910939933
  8     4.46750064353661    13.40250193060982    10.00000000000000    -0.00176270845054    -0.01021673477442    -0.01666287057618
 12     2.97833376235774    11.91333504943095    10.00000000000000     0.00710428959812     0.03701357298308     0.01889307653007
  8     7.44583440589435     1.48916688117887    10.00000000000000    -0.00152492780784     0.00366976575604    -0.00354714139179
 12     5.95666752471548     0.00000000000000    10.00000000000000     0.00139538176491     0.00019240352656     0.00556533161161
  8     7.44583440589435     4.46750064353661    10.00000000000000     0.00987626761932     0.00533677575708    -0.00426064230830
 12     5.95666752471548     2.97833376235774    10.00000000000000    -0.00024167640063    -0.00083373496113     0.00218629566289
  8     7.44583440589435     7.44583440589435    10.00000000000000    -0.00069938138764    -0.00045403940368    -0.00541094136854
 12     5.95666752471548     5.95666752471548    10.00000000000000    -0.00056984976864     0.00023288638430     0.00390095786937
  8     7.44583440589435    10.42416816825208    10.00000000000000    -0.01251720513397    -0.00496838179154    -0.00516273513291
 12     5.95666752471548     8.93500128707321    10.00000000000000     0.01972257110843    -0.02323772363217     0.00424050015334
  8     7.44583440589435    13.40250193060982    10.00000000000000    -0.00146923395102    -0.00376509629202    -0.00417575706556
 12     5.95666752471548    11.91333504943095    10.00000000000000     0.02475597293601     0.02542902876601     0.00109526156864
  8    10.42416816825208     1.48916688117887    10.00000000000000    -0.00162826956078     0.00848987679252    -0.01998620353610
 12     8.93500128707321     0.00000000000000    10.00000000000000     0.00084705761847     0.00126243801433     0.00655820023473
  8    10.42416816825208     4.46750064353661    10.00000000000000    -0.00745421486649     0.00589184037201     0.00985325865623
 12     8.93500128707321     2.97833376235774    10.00000000000000    -0.01385698585753    -0.02008717567883     0.00718590546011
  8    10.42416816825208     7.44583440589435    10.00000000000000     0.00056601088994    -0.00811955178511    -0.01542171103239
 12     8.93500128707321     5.95666752471548    10.00000000000000    -0.01633357465805     0.01792426579396     0.00414898464494
  8    10.42416816825208    10.42416816825208    10.00000000000000    -0.00096873758663    -0.00255510120215    -0.00908320547496
 12     8.93500128707321     8.93500128707321    10.00000000000000     0.00191056606101    -0.00061004377146     0.00516974529253
  8    10.42416816825208    13.40250193060982    10.00000000000000     0.00601095504201    -0.00238158431558    -0.01046961670705
 12     8.93500128707321    11.91333504943095    10.00000000000000     0.00123183842442     0.00155043998404     0.00394083073724
  8    13.40250193060982     1.48916688117887    10.00000000000000     0.00362119688389     0.00635677117071    -0.01601268679181
 12    11.91333504943095     0.00000000000000    10.00000000000000    -0.02896713588535     0.01368470928198     0.02354092325012
  8    13.40250193060982     4.46750064353661    10.00000000000000    -0.00739433524664     0.00422938925487    -0.01868191820928
 12    11.91333504943095     2.97833376235774    10.00000000000000    -0.01495840609923    -0.03094945199486     0.01651340734717
  8    13.40250193060982     7.44583440589435    10.00000000000000    -0.00568243127636    -0.00986177869493     0.00186897390208
 12    11.91333504943095     5.95666752471548    10.00000000000000    -0.00841222562485     0.02313727325867     0.01754509118637
  8    13.40250193060982    10.42416816825208    10.00000000000000     0.00266728899531    -0.00508040662477    -0.01993999193788
 12    11.91333504943095     8.93500128707321    10.00000000000000    -0.01926022703013     0.01235171571188     0.01478856667688
  8    13.40250193060982    13.40250193060982    10.00000000000000    -0.00359744462300    -0.00104156389098    -0.00911519818806
 12    11.91333504943095    11.91333504943095    10.00000000000000    -0.02178430657185    -0.01569431770313     0.01372128794403
 27     1.10783477340805     1.32490349232734    12.09187724913560     0.00599788260913     0.00034464753809    -0.00795616662263
 27    -0.34704477066037     8.14866781955420    14.38754252442789    -0.00486281084000    -0.00304473759103    -0.03680616670568
 26    -0.18385780041103     5.89196718982592    13.55775418494394     0.00607218108536     0.00810093855682    -0.01085637174183
 26     0.05012428725971    11.88627818530959    13.03041501710076    -0.04467117749648     0.02343043340914     0.02108644648302
 26     1.27319559896129    13.68226594045572    12.18989632078073     0.02959112069168    -0.00445477046875    -0.01669699696406
 27     2.54979427353036    -3.05107041044856    13.23872810638327     0.00382835796175     0.00212219102141     0.00743120497331
 26     0.97755790375947     7.91739991476586    12.39298808903671     0.03663525749794    -0.00835630006059     0.02530642462969
 27     2.95705074757764     9.05289893762203    13.28869388355504    -0.02936547595806     0.01712901629000    -0.00212883579859
 26     1.45531532177507    10.30781000418932    11.90425692054001     0.02791244902339    -0.00277639515384     0.00739080201738
 26     1.06342940093573    13.16359198484624    14.62871773231531     0.02072803872123    -0.01061924142064     0.00522763816665
 27    13.30917846691594     4.25756118921647    14.51343196420140    -0.00488059712710     0.00890526716520     0.01756280794573
 26    15.11563719245927     3.31073474488908    13.23058686108894     0.01482848640604    -0.01190447181713     0.01450228846835
 27    12.16745031003173     5.89018481817709    13.34441520910101     0.00271643727432     0.00339738281370     0.00087901792068
 26     4.33634904248606    10.57382262237100    12.09787664754502    -0.03323530227632    -0.00467873507516    -0.01503830109370
 26     1.04113802037503    10.08440322160811    14.22696203402013     0.01680425894377    -0.02064552543287     0.03127638167470
 26    13.62381341781315     1.81421115594595    12.20384065239093     0.01002564301701    -0.03727535451405    -0.05338993103158
 27    10.79665035506552     4.54286054553561    12.06990558618279     0.01915691240750    -0.00542893927377    -0.00410987023643
 26    11.82143505516501     2.83918447870143    13.40553857290474    -0.02633162220610     0.01517889454985    -0.00980729459710
 26    13.53182243291143     7.43923383896890    12.15269657614099    -0.01378178740389    -0.02364508689692    -0.00150486521497
 26    13.63077290594880    16.77779333552597    14.65580420391406     0.00712717579441    -0.00335991866062     0.02081741828555
 26    14.70531385788850     0.06811810545106    13.58117719348030     0.01721578652222    -0.00427751439403     0.00931794570687
 26    12.25635080236290     0.28320183462881    13.29828952983539    -0.01051399224434    -0.00157299204083     0.01352998260376
 26    13.28987626957228     4.29247690715567    12.08285560899247    -0.01590622767838     0.03375346923842    -0.02954804411125
 26    14.10072223051499     9.72690030504305    12.58068151467961    -0.03559376424619     0.00430796932139     0.00184400743223
 26    13.63555426119521    13.58723162554849    12.02605799491401    -0.02145076451662    -0.00000175013612     0.00004174895608
