SLAB
PRIMVEC
 14.35000000000000 0.00000000000000 0.00000000000000
 0.00000000000000 14.35000000000000 0.00000000000000
 0.00000000000000 0.00000000000000 20.00000000000000
PRIMCOORD
 75 1
  8     1.43500000000000     1.43500000000000    10.00000000000000    -0.00540885783360    -0.00427036681990    -0.02067761895765
 12     0.00000000000000     0.00000000000000    10.00000000000000    -0.00447496638771    -0.02052653009139     0.01095313904358
  8     1.43500000000000     4.30500000000000    10.00000000000000     0.00280180371562     0.00705847758263    -0.01963046664842
 12     0.00000000000000     2.87000000000000    10.00000000000000    -0.00023419265479     0.01447028584214     0.00542597935903
  8     1.43500000000000     7.17500000000000    10.00000000000000    -0.00479176491549     0.00575102077833     0.00675443517983
 12     0.00000000000000     5.74000000000000    10.00000000000000    -0.00967402964363    -0.02074040680246     0.01765473813577
  8     1.43500000000000    10.04500000000000    10.00000000000000    -0.00144975579110    -0.00446257166555    -0.00827713877604
 12     0.00000000000000     8.61000000000000    10.00000000000000    -0.00070975293205     0.02856621316773    -0.00044620648780
  8     1.43500000000000    12.91500000000000    10.00000000000000     0.00412430915041     0.00342952364938    -0.00444880118578
 12     0.00000000000000    11.48000000000000    10.00000000000000    -0.00502715943630    -0.00541948827353     0.01281405906323
  8     4.30500000000000     1.43500000000000    10.00000000000000    -0.00360709607403    -0.00338521938877    -0.00534797391472
 12     2.87000000000000     0.00000000000000    10.00000000000000    -0.00116558092550    -0.00081836973460    -0.00034259664967
  8     4.30500000000000     4.30500000000000    10.00000000000000     0.00645624298849    -0.00352127622115    -0.01146073572681
 12     2.87000000000000     2.87000000000000    10.00000000000000     0.00494569117341     0.01174209520656     0.02064945779802
  8     4.30500000000000     7.17500000000000    10.00000000000000    -0.00028875500605    -0.00189593454454    -0.01471936214928
 12     2.87000000000000     5.74000000000000    10.00000000000000     0.01745810301164    -0.00269336332000     0.00758983482201
  8     4.30500000000000    10.04500000000000    10.00000000000000     0.00022189999233     0.00357246580266    -0.01789953833471
 12     2.87000000000000     8.61000000000000    10.00000000000000     0.01591566269274     0.01451640931978     0.00495505998797
  8     4.30500000000000    12.91500000000000    10.00000000000000     0.00749970190733     0.00560403132031    -0.01182261180411
 12     2.87000000000000    11.48000000000000    10.00000000000000    -0.00124465341349    -0.01528368365722     0.01591677731739
  8     7.17500000000000     1.43500000000000    10.00000000000000    -0.00137214050197    -0.00323661767172    -0.01444892730200
 12     5.74000000000000     0.00000000000000    10.00000000000000     0.00210039770064     0.02278878610664     0.01036462513372
  8     7.17500000000000     4.30500000000000    10.00000000000000    -0.00071792497388    -0.00018376276914     0.00202585163060
 12     5.74000000000000     2.87000000000000    10.00000000000000    -0.00441029698642    -0.00343764947481     0.01182384883610
  8     7.17500000000000     7.17500000000000    10.00000000000000    -0.00760345971243    -0.00712891568328    -0.01214191265475
 12     5.74000000000000     5.74000000000000    10.00000000000000    -0.02279671666645    -0.00705099511689     0.00510649536482
  8     7.17500000000000    10.04500000000000    10.00000000000000     0.00593046617974    -0.00176888638251    -0.03301880957663
 12     5.74000000000000     8.61000000000000    10.00000000000000    -0.01837880131441     0.00546030245571     0.00437274789903
  8     7.17500000000000    12.91500000000000    10.00000000000000    -0.00408424180232     0.01143924824535    -0.01554419193722
 12     5.74000000000000    11.48000000000000    10.00000000000000    -0.00700394467037    -0.02202763617756     0.01655101414926
  8    10.04500000000000     1.43500000000000    10.00000000000000     0.00381612510731    -0.00578000911990    -0.00894261532405
 12     8.61000000000000     0.00000000000000    10.00000000000000     0.00364736685654     0.01486177601684     0.01474240601659
  8    10.04500000000000     4.30500000000000    10.00000000000000    -0.00473261600536    -0.00334190697529    -0.02220789033911
 12     8.61000000000000     2.87000000000000    10.00000000000000    -0.00319720251342    -0.01347434655766     0.01584780336921
  8    10.04500000000000     7.17500000000000    10.00000000000000    -0.00314413821409     0.00026442975151    -0.03503907143383
 12     8.61000000000000     5.74000000000000    10.00000000000000     0.00983961420225     0.00385152969943    -0.00028380077701
  8    10.04500000000000    10.04500000000000    10.00000000000000     0.00604255783960     0.00598824589627    -0.01044277638892
 12     8.61000000000000     8.61000000000000    10.00000000000000    -0.00011515413386    -0.00051463614953     0.02147716807908
  8    10.04500000000000    12.91500000000000    10.00000000000000    -0.00631743481412     0.00329531645243    -0.00342358078491
 12     8.61000000000000    11.48000000000000    10.00000000000000    -0.00401410166847    -0.00599900088308    -0.00076587356963
  8    12.91500000000000     1.43500000000000    10.00000000000000     0.00521490573642    -0.01183199639579    -0.01303117239166
 12    11.48000000000000     0.00000000000000    10.00000000000000     0.00029927829746    -0.00783052583683     0.01496761428724
  8    12.91500000000000     4.30500000000000    10.00000000000000    -0.00431296145035    -0.00142875293499    -0.02938350222469
 12    11.48000000000000     2.87000000000000    10.00000000000000     0.00196656246550     0.00427594886897    -0.00034856784287
  8    12.91500000000000     7.17500000000000    10.00000000000000     0.01103912023571     0.00323701950723    -0.01411119152060
 12    11.48000000000000     5.74000000000000    10.00000000000000     0.00255658881750     0.00119623484153     0.02366085469607
  8    12.91500000000000    10.04500000000000    10.00000000000000    -0.00079681943989    -0.00056588428756    -0.01701524536746
 12    11.48000000000000     8.61000000000000    10.00000000000000     0.00718354943918     0.00520412679616     0.00743893768354
  8    12.91500000000000    12.91500000000000    10.00000000000000    -0.00004534418080     0.00742352946814    -0.01225962876284
 12    11.48000000000000    11.48000000000000    10.00000000000000     0.02023481501388     0.00838947600491     0.00457492656585
 26     1.26602256468521     1.31755400069747    12.22573010300472     0.01976797173256    -0.01144308303418    -0.01809934710549
 26     0.30604713638359     3.33906633617837    12.67136248880720     0.00941157194128    -0.02861661650837     0.05590265752395
 26    -0.45597312054421     5.48084568514164    13.09356258212300     0.01597793077692     0.01945036458383     0.02750239863428
 26     1.07580568770693     7.15893849868100    12.27289441854099     0.01019833928985     0.00279542721572    -0.00474360302138
 26     2.12472998019976    13.47664835686816    12.54599845081062    -0.01225292471714    -0.01107511526031     0.00509083482528
 26     3.61385455874876     0.97921176879617    12.50261610680171     0.01800709173742     0.01068702211716     0.00138873943011
 26     1.80752172324961     4.99870756944009    12.58326611640739     0.03026267388817    -0.00436147941063    -0.00670695835486
 26     6.38412000063569     9.08013376126741    12.63853844990160    -0.03801371281666    -0.01360052791641     0.02629990990033
 26     5.62087196213692    11.22427388606263    12.96173576150258    -0.02798073054219     0.00577750468848     0.03367627406480
 26     4.49013065194790    13.13194801451341    12.24494836688561    -0.00960050427995     0.01018674567072    -0.01922319132943
 26     7.75323169791181     4.69796153375331    12.43551738058747    -0.01814078614299    -0.02175239439665     0.00038368102770
 26     7.13197417799938     6.96250159016831    12.21817672771481    -0.03018048876274    -0.01553116359741    -0.02778389193704
 26     8.62614622474791     8.56716515534476    12.96583409425245    -0.00327533956648    -0.00243791278191     0.06047518094708
 26     7.86384913410579    10.72633080642667    12.55670215356506     0.00060616790864     0.01812233980429     0.00631614160667
 26     7.05419992761943    12.89146049662682    12.19084783372787    -0.01220515756654     0.03028501987991    -0.00893379589146
 26    10.81168217984060     2.03729589068337    12.55967777974872    -0.02016024916177    -0.01842510981463     0.01513754453135
 26    10.05998827184752     4.23102472169518    12.22693150421590    -0.02188810283961    -0.03377194380448    -0.03308547558480
 26     9.34614793167067     6.39387058680002    12.57409062737973    -0.00929026467611    -0.01180226136668     0.01153549574478
 26    10.08617340583978    10.18461284614291    12.20941481642047     0.03097570575615     0.01205323760401    -0.02523769411538
 26     9.39709496004921    12.44666177365970    12.48919712610073     0.01930511154832     0.02730265463279     0.00458741254559
 26    13.13571055473495     1.58445368704758    12.23812542379866     0.00224258310629    -0.02973732632716    -0.00890441349498
 26    12.38176580484913     3.79554648144670    12.47660711719164     0.00345468768493    -0.00674239554796    -0.02365144787805
 26    11.56551246866779     5.86858873930344    12.97460694649841     0.00119770343791     0.00426394115687     0.06854010524625
 26    10.84520214885791     8.03383817564705    12.61164782423390     0.02462818013634     0.02396627208111     0.02220547175826
 26    13.06630281956223     7.46143530527617    12.23359269756828     0.01067697729842     0.02890041293850    -0.03129981610268
