SLAB
PRIMVEC
 14.35000000000000 0.00000000000000 0.00000000000000
 0.00000000000000 14.35000000000000 0.00000000000000
 0.00000000000000 0.00000000000000 20.00000000000000
PRIMCOORD
 75 1
  8     1.43500000000000     1.43500000000000    10.00000000000000    -0.00255428237438     0.00016920766739    -0.00189004647519
 12     0.00000000000000     0.00000000000000    10.00000000000000     0.00074532312288    -0.00176608490252     0.00049156534707
  8     1.43500000000000     4.30500000000000    10.00000000000000    -0.00243078631281     0.00824239560494    -0.02034797184211
 12     0.00000000000000     2.87000000000000    10.00000000000000     0.00584444605717    -0.00580678870651     0.00906843046834
  8     1.43500000000000     7.17500000000000    10.00000000000000    -0.00296078455336     0.00246577412414    -0.00120432031802
 12     0.00000000000000     5.74000000000000    10.00000000000000     0.00820482890594    -0.03498335689259     0.01949901248408
  8     1.43500000000000    10.04500000000000    10.00000000000000    -0.00258493380649    -0.01192662637550    -0.01288568592054
 12     0.00000000000000     8.61000000000000    10.00000000000000     0.00104526332327     0.04382836470194     0.01087904362161
  8     1.43500000000000    12.91500000000000    10.00000000000000    -0.00258591223371     0.00199065651408    -0.00123613606600
 12     0.00000000000000    11.48000000000000    10.00000000000000    -0.00026350092911    -0.00109869197103     0.00695474525467
  8     4.30500000000000     1.43500000000000    10.00000000000000     0.00331011527833     0.00406765220862    -0.00433411309736
 12     2.87000000000000     0.00000000000000    10.00000000000000    -0.00069551665460    -0.00180327076017     0.00049147169941
  8     4.30500000000000     4.30500000000000    10.00000000000000     0.01266765068428     0.00613418880039    -0.00735690997659
 12     2.87000000000000     2.87000000000000    10.00000000000000    -0.00616239630861    -0.00617735685061     0.00896050401813
  8     4.30500000000000     7.17500000000000    10.00000000000000    -0.00948315509257     0.00275405164254    -0.01212748165119
 12     2.87000000000000     5.74000000000000    10.00000000000000    -0.00884853999860    -0.03444374515558     0.01885581314807
  8     4.30500000000000    10.04500000000000    10.00000000000000     0.00042853430106    -0.01051069973819    -0.01352592340245
 12     2.87000000000000     8.61000000000000    10.00000000000000    -0.00097420035185     0.04343612200455     0.01063296296873
  8     4.30500000000000    12.91500000000000    10.00000000000000     0.00226726574522     0.00310885476519    -0.00133046274874
 12     2.87000000000000    11.48000000000000    10.00000000000000     0.00033345809005    -0.00108639890697     0.00696104532898
  8     7.17500000000000     1.43500000000000    10.00000000000000    -0.00188481198125     0.01033763756356    -0.01011996634951
 12     5.74000000000000     0.00000000000000    10.00000000000000    -0.00092785226648    -0.00221580701248     0.00274540084673
  8     7.17500000000000     4.30500000000000    10.00000000000000     0.00653757767873    -0.00497316824600    -0.01135090606345
 12     5.74000000000000     2.87000000000000    10.00000000000000    -0.01578057120582    -0.02679958637992     0.00881196241319
  8     7.17500000000000     7.17500000000000    10.00000000000000    -0.00883021465029    -0.01422917865703    -0.01768868756324
 12     5.74000000000000     5.74000000000000    10.00000000000000    -0.00195490715382    -0.00194681691995     0.00230489304514
  8     7.17500000000000    10.04500000000000    10.00000000000000    -0.00131671365251    -0.00427537415771    -0.01194541860207
 12     5.74000000000000     8.61000000000000    10.00000000000000     0.01719065825652     0.02872599754637     0.02016265273216
  8     7.17500000000000    12.91500000000000    10.00000000000000    -0.00180078592808     0.00519713602819    -0.00189760564374
 12     5.74000000000000    11.48000000000000    10.00000000000000     0.00114789494804    -0.00149247434424     0.00653710144716
  8    10.04500000000000     1.43500000000000    10.00000000000000    -0.00065319600360     0.01030348145853    -0.01001763915263
 12     8.61000000000000     0.00000000000000    10.00000000000000     0.00032785534427    -0.00238208727127     0.00585895119076
  8    10.04500000000000     4.30500000000000    10.00000000000000    -0.00887022917087    -0.00518773835908    -0.01072217962430
 12     8.61000000000000     2.87000000000000    10.00000000000000    -0.00000519953287    -0.04423580334204     0.00947218534108
  8    10.04500000000000     7.17500000000000    10.00000000000000     0.00624156247102    -0.01419640794526    -0.01692176337749
 12     8.61000000000000     5.74000000000000    10.00000000000000    -0.00067778540596     0.03679724476841     0.01706176433933
  8    10.04500000000000    10.04500000000000    10.00000000000000    -0.00075811523642    -0.00379430138344    -0.01218308238889
 12     8.61000000000000     8.61000000000000    10.00000000000000     0.00011887162437     0.01473588784540     0.01355284741527
  8    10.04500000000000    12.91500000000000    10.00000000000000    -0.00075712840882     0.00526458127615    -0.00186481973336
 12     8.61000000000000    11.48000000000000    10.00000000000000    -0.00004880181488    -0.00106638779800     0.00373033166880
  8    12.91500000000000     1.43500000000000    10.00000000000000     0.00178852472213     0.00385027079763    -0.00420613885220
 12    11.48000000000000     0.00000000000000    10.00000000000000     0.00056495697945    -0.00222465076386     0.00262936210160
  8    12.91500000000000     4.30500000000000    10.00000000000000    -0.00802947005215     0.00672330791160    -0.00822717513944
 12    11.48000000000000     2.87000000000000    10.00000000000000     0.01604536552347    -0.02619306844304     0.00900226037748
  8    12.91500000000000     7.17500000000000    10.00000000000000     0.01432023801754     0.00301364708712    -0.01193982657010
 12    11.48000000000000     5.74000000000000    10.00000000000000     0.00244236159253    -0.00262734935986     0.00282544711760
  8    12.91500000000000    10.04500000000000    10.00000000000000     0.00433217202209    -0.01090707483139    -0.01352966734883
 12    11.48000000000000     8.61000000000000    10.00000000000000    -0.01743634798411     0.02945612762382     0.01957035281212
  8    12.91500000000000    12.91500000000000    10.00000000000000     0.00287644011935     0.00308080171788    -0.00130586732294
 12    11.48000000000000    11.48000000000000    10.00000000000000    -0.00115498797605    -0.00155005471696     0.00654531464660
 26     2.77773568600870     5.72146576454503    13.48003150444720    -0.01108697889215     0.01657074621379     0.00579900855231
 26     2.93689415353226     8.11665119654726    13.84861099290523    -0.00446496791408    -0.01748644093195    -0.01501022706478
 26     0.06864492066734     5.74513564001230    13.48571632166241     0.01154097370371     0.01743631565277     0.00606065070100
 26     4.90613048113111     6.62299086279660    14.39367031599509    -0.00294915943532    -0.00248600378792     0.02547707116218
 26     1.43507382963463     7.20885108132168    12.12837313780211    -0.00022439318310     0.00231186246085     0.01539526959133
 26     5.74784275250644     8.68293024767788    13.46256011670202    -0.00106637178273    -0.00474081294299    -0.00098840799139
 26     6.64276563702219     6.71062138180183    12.43901047694969    -0.00011201151302     0.01681259535066    -0.02207387935052
 26     8.59846803458449     5.82427404989662    13.35794261381516     0.00131631266017     0.00023555621049    -0.02678686391484
 26     4.27421660998721     7.17549284478525    12.07715888024285    -0.00810393678999     0.00938765430487    -0.01440815265390
 26     8.57682706944422     8.23722648107448    13.02429253335568     0.00067278141176     0.01516763160845     0.00581311929433
 26     4.91183811311363     4.89037815492054    12.58711333501342    -0.01058476736500    -0.01345746964147    -0.00516773134351
 26     6.57869836441746     4.87918298940656    14.38533502677159    -0.00948297609064     0.00073587941072     0.00262556102099
 26     7.25454940766283     4.31616320885949    12.08410680084562     0.00152645891563    -0.00715439594875    -0.00328240250912
 26     9.90579498329733     7.25716402966258    14.84407729302975     0.00657300017069     0.00628029867745     0.01932691144971
 26     7.27185835364000     7.23557428372793    14.85282762321104    -0.00583196917569     0.00574993197154     0.02054147934388
 26     8.61157268097717     3.46913839249535    13.96190899770721     0.00024591227448    -0.02106650095271     0.00587361729902
 26     9.95521571226697     4.32873403509551    12.08485544871585    -0.00054230796187    -0.00753190879003    -0.00214067746942
 26    10.54439762174799     6.73669398407819    12.42628953548503     0.00040446881777     0.01613753425366    -0.02103096875851
 26    12.28477766104837     6.66573792180383    14.39151261207570     0.00203180676144    -0.00207647960064     0.02586440268564
 26     8.59468799286566     5.30276991666185    15.72456596631151    -0.00035718021171     0.00189356409401     0.00946630817414
 26    12.28098985453391     4.91717867120884    12.60822221080125     0.01039533511864    -0.01450197903201    -0.00551567346444
 26    10.62033123326240     4.90779350246298    14.39967861826533     0.00967390703446     0.00130438991239     0.00124627847354
 26    12.92681957862904     7.18694692481988    12.07250082372013     0.00832209646409     0.00906451032824    -0.01250556346378
 26    14.27203650633763     8.13940172202356    13.82573403728066     0.00405784135533    -0.01713582007689    -0.01465078734010
 26    11.44302562041630     8.70724548595217    13.44492841749121     0.00086596663770    -0.00654819179268    -0.00104442744328
