SLAB
PRIMVEC
 14.89166881178869 0.00000000000000 0.00000000000000
 0.00000000000000 14.89166881178869 0.00000000000000
 0.00000000000000 0.00000000000000 41.48916688117887
PRIMCOORD
 77 1
  8     1.48916688117887     1.48916688117887    10.00000000000000     0.00376555417581     0.01411380955663    -0.00860223299586
 12     0.00000000000000     0.00000000000000    10.00000000000000    -0.00853036682355    -0.01180493260278     0.02073156053462
  8     1.48916688117887     4.46750064353661    10.00000000000000    -0.00392248747204    -0.00086639539380    -0.01077952862739
 12     0.00000000000000     2.97833376235774    10.00000000000000    -0.00440211140336     0.01440421809606     0.01390407756168
  8     1.48916688117887     7.44583440589435    10.00000000000000     0.00005240432973     0.00070836615467    -0.00259814355864
 12     0.00000000000000     5.95666752471548    10.00000000000000     0.00153043999482     0.00019088955951     0.00603926862821
  8     1.48916688117887    10.42416816825208    10.00000000000000     0.00182601596151    -0.01177243070046    -0.01526660851422
 12     0.00000000000000     8.93500128707321    10.00000000000000    -0.00047715466255    -0.00528405813070     0.00908264980968
  8     1.48916688117887    13.40250193060982    10.00000000000000     0.00447983237557     0.01027735514437    -0.01887886939891
 12     0.00000000000000    11.91333504943095    10.00000000000000     0.00086462778933     0.00021446055451     0.01293264838134
  8     4.46750064353661     1.48916688117887    10.00000000000000     0.00061349700924    -0.01210523634741    -0.01671216773108
 12     2.97833376235774     0.00000000000000    10.00000000000000    -0.00885766501091    -0.00696990501415    -0.01075195280991
  8     4.46750064353661     4.46750064353661    10.00000000000000     0.00177813323848     0.00036935840823    -0.01229314453415
 12     2.97833376235774     2.97833376235774    10.00000000000000     0.01314944088899     0.03022983278340    -0.00505853647504
  8     4.46750064353661     7.44583440589435    10.00000000000000     0.00824311509508     0.00116461199542    -0.00940275551319
 12     2.97833376235774     5.95666752471548    10.00000000000000     0.00062636779496    -0.00034832477343     0.00997893480800
  8     4.46750064353661    10.42416816825208    10.00000000000000    -0.00133051497466     0.01037497846768    -0.00658038795856
 12     2.97833376235774     8.93500128707321    10.00000000000000     0.00210525878492    -0.01719259339226     0.00624357175541
  8     4.46750064353661    13.40250193060982    10.00000000000000    -0.00495521695814    -0.00693417242691    -0.00694870802055
 12     2.97833376235774    11.91333504943095    10.00000000000000    -0.03867374543076    -0.00439456312341    -0.00937838410377
  8     7.44583440589435     1.48916688117887    10.00000000000000    -0.00259869486162     0.00684472715418    -0.01401988586261
 12     5.95666752471548     0.00000000000000    10.00000000000000     0.01287729901063     0.00528352803165     0.01996457726561
  8     7.44583440589435     4.46750064353661    10.00000000000000     0.00666407531394     0.00812042272706    -0.00845537670848
 12     5.95666752471548     2.97833376235774    10.00000000000000     0.00085491679497     0.01116216184765     0.01677539876620
  8     7.44583440589435     7.44583440589435    10.00000000000000     0.00468554270885     0.00112901607289    -0.00657400736866
 12     5.95666752471548     5.95666752471548    10.00000000000000    -0.00340921157190     0.00097405729604     0.01161869248068
  8     7.44583440589435    10.42416816825208    10.00000000000000    -0.00661130140398    -0.00844545168780    -0.00396926414227
 12     5.95666752471548     8.93500128707321    10.00000000000000     0.00272812157810    -0.01308421258137     0.01743417409619
  8     7.44583440589435    13.40250193060982    10.00000000000000    -0.00352839318920    -0.00384981586311    -0.02431365451791
 12     5.95666752471548    11.91333504943095    10.00000000000000     0.01479355752726     0.01002802139484     0.00543792144499
  8    10.42416816825208     1.48916688117887    10.00000000000000    -0.00284722177137    -0.00635859521362    -0.01219930532152
 12     8.93500128707321     0.00000000000000    10.00000000000000    -0.01220290303410    -0.00358154106696     0.00876859157423
  8    10.42416816825208     4.46750064353661    10.00000000000000    -0.00387593937692     0.00054761459336     0.02058562604202
 12     8.93500128707321     2.97833376235774    10.00000000000000    -0.02557607008942    -0.00742964012614     0.02142958752761
  8    10.42416816825208     7.44583440589435    10.00000000000000    -0.00439247655432    -0.00239341343317    -0.00253706197673
 12     8.93500128707321     5.95666752471548    10.00000000000000    -0.01483828539582     0.00854605337629     0.00401084583919
  8    10.42416816825208    10.42416816825208    10.00000000000000    -0.00727041757478    -0.00261676537064     0.01209231263147
 12     8.93500128707321     8.93500128707321    10.00000000000000    -0.00947501703171    -0.00985273215104     0.00613551672726
  8    10.42416816825208    13.40250193060982    10.00000000000000     0.00076396791703     0.00177786254669    -0.01583756773057
 12     8.93500128707321    11.91333504943095    10.00000000000000    -0.01766437738412     0.00223616635229     0.00845544880823
  8    13.40250193060982     1.48916688117887    10.00000000000000    -0.00551571603611     0.01491163149367    -0.01288958394386
 12    11.91333504943095     0.00000000000000    10.00000000000000     0.01956200195051    -0.00255924688011     0.00513949387015
  8    13.40250193060982     4.46750064353661    10.00000000000000    -0.00527286274835     0.00257008461387    -0.01059822797840
 12    11.91333504943095     2.97833376235774    10.00000000000000     0.02096682929070    -0.00229608666536    -0.01790500817677
  8    13.40250193060982     7.44583440589435    10.00000000000000    -0.00668510888167    -0.00172374738715    -0.00506437448822
 12    11.91333504943095     5.95666752471548    10.00000000000000     0.01553848898017     0.01078983872638     0.00422114916156
  8    13.40250193060982    10.42416816825208    10.00000000000000    -0.00248512050599    -0.00539101304375    -0.01029496672781
 12    11.91333504943095     8.93500128707321    10.00000000000000     0.01278726706757    -0.00696239376831     0.00742937039650
  8    13.40250193060982    13.40250193060982    10.00000000000000    -0.00202553200758    -0.00029890002080    -0.02047874601095
 12    11.91333504943095    11.91333504943095    10.00000000000000     0.01455138899011    -0.00131780493015     0.00506798955521
 27     2.00454881401408     1.70542616317401    12.06593678632362    -0.01574835662003     0.00756890834419    -0.01083352658837
 27    -0.01724526956120     0.88308522556052    12.65203287944929    -0.02869946458361    -0.02310573983864     0.02956859605982
 26     2.00089520626002     9.47711807120827    12.61475936158923    -0.00873660373906    -0.00202626955703    -0.00508760054557
 26     2.06108242183906    11.85563625666454    12.87434690263823    -0.00108368577240    -0.00714897914794     0.02750343220938
 26     1.91588907620401    14.25901176939685    12.54750515884120     0.00300043741242     0.01363709205288     0.00698618573706
 27     3.96856980631494     0.67268556353172    12.31512362167574     0.06424317591426    -0.00283709808421     0.01622825212805
 26     4.06615207569182     2.99238665179768    12.78937691287424     0.01464081357816     0.00545284554662     0.00219813038061
 27     4.33207905465189     8.71468220466244    12.92464993075011    -0.03309310270169     0.02854044459495     0.01118677900978
 26     4.20204130387790    10.83211827700741    12.15255585135971     0.03052061805498    -0.03183201198226    -0.01123836546581
 26     4.01931584944205    13.17837377069924    12.12889957802936     0.02150814093875     0.02897500937587    -0.01528053759028
 27     8.23442843444384     0.20903381742789    12.59243844140791     0.00235349708279    -0.01501011456095     0.01610609273012
 26     6.15579671565193     1.66306704511508    12.73076022996706     0.00539250982211     0.00107355928830    -0.00106471332025
 27     6.08943951963566     4.27206432065756    12.83271106680607    -0.01047186041204    -0.05497686123221    -0.00923251347574
 26     6.24022237192633    13.64953887129584    12.74171765699627     0.01681802046082     0.02771014833499     0.02305864028790
 26     6.55812500262893    11.11188363394809    12.59851217540686     0.00675391350032     0.01157906155332     0.01318600480479
 26    12.72464941646879    -0.26726289507797    12.78049299386264    -0.00532472659266     0.00317232856724     0.01224659847022
 27    10.68869730756282     3.70404518001697    12.12798728922764     0.01104647430382    -0.03451150818169     0.00433916552063
 26    12.65243369104688    12.12851078772342    12.71419935583775    -0.00985970139167     0.00041438564853     0.01293077222533
 26    10.29475833451528    11.09416477295108    12.38202957128047     0.01268377826583     0.01445795225599    -0.00757349394784
 26     8.42220952154405    12.63972700001104    12.71172678863593     0.00104106823336     0.01358004685078     0.01370116074790
 26    12.77415804777499     2.16104498205341    12.44823118123059     0.00116625889858    -0.00950069774817    -0.00244174748472
 26    10.60475268837228     1.13537215878070    12.27821534597079    -0.01551190063442     0.02213041107959    -0.01148820951734
 26    14.77999341903446    10.75547228991180    12.74452485550709    -0.00018193002514     0.00396060595902     0.00325850379594
 26    14.76250036477459    13.21905157853450    12.69187296051077    -0.00849186054291    -0.00186750034215     0.00086126423075
 26    10.62087662716971    13.50352466530620    12.18872375052865    -0.01857627345543     0.00670296758105    -0.00958361877637
  5     3.25119597546288    10.41646140596664    13.84995758245234     0.01316002978151    -0.00819668604514    -0.00993218762279
  5     5.05773943987027    12.13933746906531    13.50887418029928    -0.00506219641568    -0.01268163080897    -0.02337304642113
