SLAB
PRIMVEC
 14.89166881178869 0.00000000000000 0.00000000000000
 0.00000000000000 14.89166881178869 0.00000000000000
 0.00000000000000 0.00000000000000 41.48916688117887
PRIMCOORD
 77 1
  8     1.48916688117887     1.48916688117887    10.00000000000000     0.00869912787672     0.00656507653440     0.01252966087307
 12     0.00000000000000     0.00000000000000    10.00000000000000    -0.00366063591250     0.02174755947042     0.00531396910823
  8     1.48916688117887     4.46750064353661    10.00000000000000     0.00077861743599    -0.00478872667146    -0.00867343727448
 12     0.00000000000000     2.97833376235774    10.00000000000000    -0.01208045073921     0.01458897296254     0.01247370912188
  8     1.48916688117887     7.44583440589435    10.00000000000000     0.00157173241385    -0.00115819602532    -0.00187349933688
 12     0.00000000000000     5.95666752471548    10.00000000000000    -0.00072648789778     0.00096467827909     0.00180379664970
  8     1.48916688117887    10.42416816825208    10.00000000000000     0.00174875715746    -0.00036881682943    -0.00743091513443
 12     0.00000000000000     8.93500128707321    10.00000000000000    -0.00064041411957    -0.00029326421718     0.00666906423164
  8     1.48916688117887    13.40250193060982    10.00000000000000    -0.01044344180864     0.01088486750004    -0.01067910660040
 12     0.00000000000000    11.91333504943095    10.00000000000000     0.01482285186336    -0.02816881576106     0.02247910223023
  8     4.46750064353661     1.48916688117887    10.00000000000000     0.00445746920342     0.01132547391992     0.00886086311084
 12     2.97833376235774     0.00000000000000    10.00000000000000     0.00800878462921    -0.02423799705665     0.02457917821253
  8     4.46750064353661     4.46750064353661    10.00000000000000     0.00355205540697    -0.00555223307771    -0.00967284240961
 12     2.97833376235774     2.97833376235774    10.00000000000000     0.00100596496879     0.02441444574305     0.02060331074952
  8     4.46750064353661     7.44583440589435    10.00000000000000     0.00490317522931    -0.00328332430236    -0.00201118304161
 12     2.97833376235774     5.95666752471548    10.00000000000000     0.00007039320407     0.00098127135852     0.00448368449242
  8     4.46750064353661    10.42416816825208    10.00000000000000     0.00435367796141    -0.00568548519848    -0.01414745288126
 12     2.97833376235774     8.93500128707321    10.00000000000000     0.00296000230028     0.00080964454246     0.00272312004722
  8     4.46750064353661    13.40250193060982    10.00000000000000     0.01346531340015     0.01472941792876    -0.03207391923985
 12     2.97833376235774    11.91333504943095    10.00000000000000     0.01284595205616    -0.00793377358634     0.01439705462834
  8     7.44583440589435     1.48916688117887    10.00000000000000    -0.00930149884233     0.00201007119091     0.00421536868437
 12     5.95666752471548     0.00000000000000    10.00000000000000    -0.01071030918012    -0.00356758050425    -0.00327856691822
  8     7.44583440589435     4.46750064353661    10.00000000000000    -0.00060003264392    -0.00352065775549    -0.00475442561086
 12     5.95666752471548     2.97833376235774    10.00000000000000     0.00197998421239     0.02358940242207     0.00945166542235
  8     7.44583440589435     7.44583440589435    10.00000000000000     0.00000136812548    -0.00048622489603    -0.00199351884172
 12     5.95666752471548     5.95666752471548    10.00000000000000    -0.00097848060101     0.00175028725710     0.00306922408861
  8     7.44583440589435    10.42416816825208    10.00000000000000     0.00134278272463     0.00268392347107    -0.00840657833363
 12     5.95666752471548     8.93500128707321    10.00000000000000    -0.00408148762004     0.00027288594796     0.00217331890250
  8     7.44583440589435    13.40250193060982    10.00000000000000     0.01714240045442    -0.00468760219789    -0.02258594521138
 12     5.95666752471548    11.91333504943095    10.00000000000000    -0.01895374866380    -0.01556255568500     0.02293789560296
  8    10.42416816825208     1.48916688117887    10.00000000000000    -0.00710784368479    -0.00434059154470    -0.01677727106468
 12     8.93500128707321     0.00000000000000    10.00000000000000     0.01220077086615     0.03256143103421     0.00843156497254
  8    10.42416816825208     4.46750064353661    10.00000000000000    -0.00299213795530    -0.00031968772741    -0.00352315290401
 12     8.93500128707321     2.97833376235774    10.00000000000000     0.00875054036384     0.00938086383550     0.00870171989906
  8    10.42416816825208     7.44583440589435    10.00000000000000    -0.00405128961623     0.00082558253823    -0.00201045357292
 12     8.93500128707321     5.95666752471548    10.00000000000000     0.00132410018559     0.00149276572113     0.00118814573351
  8    10.42416816825208    10.42416816825208    10.00000000000000    -0.00214591571162     0.00838668954857    -0.01190621641734
 12     8.93500128707321     8.93500128707321    10.00000000000000     0.00054847355970    -0.00110939123261     0.00445946358476
  8    10.42416816825208    13.40250193060982    10.00000000000000     0.00369231110563    -0.01113146807947    -0.02491191556488
 12     8.93500128707321    11.91333504943095    10.00000000000000    -0.00116588096705    -0.04709235994686     0.00122637489803
  8    13.40250193060982     1.48916688117887    10.00000000000000     0.00289557568669    -0.00213030725642    -0.01517109597411
 12    11.91333504943095     0.00000000000000    10.00000000000000    -0.00194466127657     0.03720544810303     0.02244678938211
  8    13.40250193060982     4.46750064353661    10.00000000000000    -0.00075691147511     0.00016850088051    -0.00398340347426
 12    11.91333504943095     2.97833376235774    10.00000000000000     0.00004942156392     0.00328569003552     0.00814810159323
  8    13.40250193060982     7.44583440589435    10.00000000000000    -0.00246623090857     0.00004700087688    -0.00133390684676
 12    11.91333504943095     5.95666752471548    10.00000000000000     0.00029927511613     0.00056977364156     0.00082228110778
  8    13.40250193060982    10.42416816825208    10.00000000000000    -0.00227824027072     0.00399715956093    -0.01419196141238
 12    11.91333504943095     8.93500128707321    10.00000000000000     0.00117648827342    -0.00048021900086     0.00519660789836
  8    13.40250193060982    13.40250193060982    10.00000000000000    -0.01106201541219    -0.00335944869088    -0.01753097615028
 12    11.91333504943095    11.91333504943095    10.00000000000000     0.00832746655429    -0.04200504979239     0.01428566567359
 27     1.51769017691480     1.28755162914286    12.21112939337182     0.04598902356575     0.02914698708156    -0.06943298201756
 27     1.14462315810478     0.44896366664188    14.21049742869534    -0.03226131074146     0.02210126267227     0.05270096291765
 26     1.54911972806444    13.10399128538825    14.62439876812798    -0.00849253155959    -0.03119124227893     0.03909417596843
 26     0.93624899805019    13.82437414142227    12.37131897344100     0.01398823611765    -0.01305621509958    -0.05679230987164
 26     3.95655159902418    12.90215875961382    14.78099581786843    -0.00098787287921    -0.01040271241378     0.01115359294617
 27     2.86667114444680     0.04171726994319    15.46521959481865     0.03936982482354    -0.00211382467123     0.05154751343098
 26     3.05198773438964     1.91571829348428    13.91989825649877     0.00085712681630     0.02317768405876    -0.01305766317918
 27     2.29340255816536    11.98751264856097    12.73956921092001     0.02912160064049     0.00160949524901     0.02209222227910
 26     5.54597086705890    14.11870610857268    12.54899060594707    -0.00714911349449    -0.01302005537488    -0.03482366079478
 26     3.14303245292574    14.43714805845081    13.13045322067814     0.00996345320657    -0.00596668009122    -0.04177224872338
 27     9.36731825278600     0.28909647447401    12.83583870941847     0.01868274664132    -0.00121196290221     0.01146417425663
 26     7.05333532294642     1.03611928200574    12.37137068303475     0.00730612270498     0.01966123964830    -0.01034811279717
 27     4.60672096501186     1.38597459134494    12.25677215350188    -0.02239714196272    -0.00155101295987    -0.02088373337761
 26     5.01352162140742    15.32596019127050    14.48402431541122     0.01853206391791     0.01326271142637     0.00962457329293
 26     6.12391625193016    11.94316770808423    13.20183901474568    -0.00037628856033     0.01780157281021     0.00929336096024
 26    11.85556495142438    -0.11585458794416    13.14824976919012     0.00761999673573     0.00925875322145     0.03224714301899
 27    14.28134054585648     0.65517854059382    12.88256810504560    -0.07731514570176     0.01666105826850    -0.01594727633511
 26    12.14657326081883    12.36561625777213    13.47008632800679    -0.00412408799865     0.00844915406744     0.02321436048917
 26     7.52641918879580    14.35431748182456    14.09674485452835     0.00776523884919     0.00006343388116     0.02594432136515
 26     7.88710869166494    13.41668937048797    12.03809869825225    -0.02176116633069    -0.00455098815058     0.00792213105406
 26    14.15122895542157    -1.07267786927780    14.55669672211706    -0.02249497716510     0.00095113506037    -0.02705435549430
 26    10.04881950404408    -1.33553466214081    14.46119400908897    -0.00696102149561     0.00367702660156    -0.03550945730411
 26    13.50678149180414    13.47527698636775    12.01379616791164    -0.01746731310907    -0.01092908972446    -0.02077218447011
 26    14.78156855472518    11.85090839426438    13.25174673664310    -0.02128315166981    -0.01886200530558     0.00585155788346
 26    10.41450443027744    13.25007136235338    12.02516299772400     0.00371040345089     0.00975751009921     0.00169201724796
  5     4.24001012134151    12.66402692830198    12.83558401888366    -0.02608712923019    -0.03974355586856    -0.02500540169889
  5     5.81105144669619    13.44969655502663    14.45670936173748     0.02493243407594    -0.00699222595671     0.03823630919683
