75
Lattice="14.350000000000001 0.0 0.0 0.0 14.350000000000001 0.0 0.0 0.0 20.0" Properties=species:S:1:pos:R:3 generator=HeteroStructRandomize uuid=dac86763-886d-4ee8-8894-0be295eadbc5 model_energy=-413.0711436484285 uncertainty=5.895248371255436 acquisition_value=-424.8616403909394 time_stamp=6661.061817884445 search_iteration=14 relaxation_steps=49 relax_index=1 final=1 parent_search_iterations="_JSON []" parent_uuids="_JSON []" spawn_uuids="_JSON [\"dac86763-886d-4ee8-8894-0be295eadbc5\"]" evaluator_energy="_JSON {\"14\": -418.06796162689494}" iteration=14 database_id=14 pbc="T T F"
O        1.43500000       1.43500000      10.00000000
Mg       0.00000000       0.00000000      10.00000000
O        1.43500000       4.30500000      10.00000000
Mg       0.00000000       2.87000000      10.00000000
O        1.43500000       7.17500000      10.00000000
Mg       0.00000000       5.74000000      10.00000000
O        1.43500000      10.04500000      10.00000000
Mg       0.00000000       8.61000000      10.00000000
O        1.43500000      12.91500000      10.00000000
Mg       0.00000000      11.48000000      10.00000000
O        4.30500000       1.43500000      10.00000000
Mg       2.87000000       0.00000000      10.00000000
O        4.30500000       4.30500000      10.00000000
Mg       2.87000000       2.87000000      10.00000000
O        4.30500000       7.17500000      10.00000000
Mg       2.87000000       5.74000000      10.00000000
O        4.30500000      10.04500000      10.00000000
Mg       2.87000000       8.61000000      10.00000000
O        4.30500000      12.91500000      10.00000000
Mg       2.87000000      11.48000000      10.00000000
O        7.17500000       1.43500000      10.00000000
Mg       5.74000000       0.00000000      10.00000000
O        7.17500000       4.30500000      10.00000000
Mg       5.74000000       2.87000000      10.00000000
O        7.17500000       7.17500000      10.00000000
Mg       5.74000000       5.74000000      10.00000000
O        7.17500000      10.04500000      10.00000000
Mg       5.74000000       8.61000000      10.00000000
O        7.17500000      12.91500000      10.00000000
Mg       5.74000000      11.48000000      10.00000000
O       10.04500000       1.43500000      10.00000000
Mg       8.61000000       0.00000000      10.00000000
O       10.04500000       4.30500000      10.00000000
Mg       8.61000000       2.87000000      10.00000000
O       10.04500000       7.17500000      10.00000000
Mg       8.61000000       5.74000000      10.00000000
O       10.04500000      10.04500000      10.00000000
Mg       8.61000000       8.61000000      10.00000000
O       10.04500000      12.91500000      10.00000000
Mg       8.61000000      11.48000000      10.00000000
O       12.91500000       1.43500000      10.00000000
Mg      11.48000000       0.00000000      10.00000000
O       12.91500000       4.30500000      10.00000000
Mg      11.48000000       2.87000000      10.00000000
O       12.91500000       7.17500000      10.00000000
Mg      11.48000000       5.74000000      10.00000000
O       12.91500000      10.04500000      10.00000000
Mg      11.48000000       8.61000000      10.00000000
O       12.91500000      12.91500000      10.00000000
Mg      11.48000000      11.48000000      10.00000000
Fe       1.44469535       1.43275386      12.27094873
Fe       1.45664556       4.52543357      12.25911268
Fe       1.59741808       7.01281829      12.25286670
Fe       1.59917976      10.20620123      12.25216297
Fe       1.44028499      12.71054536      12.26046036
Fe       4.52099564       1.64279090      12.24529668
Fe       4.52313548       4.11956012      12.24929871
Fe       4.07606605       7.33577007      12.24998535
Fe       4.07060874       9.84704512      12.24756185
Fe       4.52166943      12.92077710      12.25924769
Fe       6.99483697       1.65240097      12.24697100
Fe       6.99118240       4.12619986      12.25278183
Fe       7.17469048       7.35436579      12.26334010
Fe       7.18461337       9.84409424      12.26020539
Fe       7.01281903      12.91900065      12.26134963
Fe      10.22140960       1.26780799      12.25841600
Fe      10.22732573       4.46079002      12.25318498
Fe      10.26953373       6.96423321      12.24962884
Fe      10.26648184      10.04398239      12.25906093
Fe      10.21446255      13.11931741      12.24843117
Fe      12.70390967       1.62300169      12.25152557
Fe      12.69861687       4.14552340      12.25212325
Fe      12.72990616       7.34809188      12.25196052
Fe      12.73625235       9.83145066      12.24968017
Fe      12.68172873      12.92113409      12.25804065
