75
Lattice="14.350000000000001 0.0 0.0 0.0 14.350000000000001 0.0 0.0 0.0 20.0" Properties=species:S:1:pos:R:3 generator=HeteroStructRandomize uuid=3bcb330a-fdea-4e24-a1f9-d9c7b7039256 model_energy=-417.27246271011035 uncertainty=6.070316338400317 acquisition_value=-429.413095386911 time_stamp=8658.929682731628 search_iteration=24 relaxation_steps=100 relax_index=1 final=1 parent_search_iterations="_JSON []" parent_uuids="_JSON []" spawn_uuids="_JSON [\"3bcb330a-fdea-4e24-a1f9-d9c7b7039256\"]" evaluator_energy="_JSON {\"24\": -417.72787136934323}" iteration=24 database_id=24 pbc="T T F"
O        1.43500000       1.43500000      10.00000000
Mg       0.00000000       0.00000000      10.00000000
O        1.43500000       4.30500000      10.00000000
Mg       0.00000000       2.87000000      10.00000000
O        1.43500000       7.17500000      10.00000000
Mg       0.00000000       5.74000000      10.00000000
O        1.43500000      10.04500000      10.00000000
Mg       0.00000000       8.61000000      10.00000000
O        1.43500000      12.91500000      10.00000000
Mg       0.00000000      11.48000000      10.00000000
O        4.30500000       1.43500000      10.00000000
Mg       2.87000000       0.00000000      10.00000000
O        4.30500000       4.30500000      10.00000000
Mg       2.87000000       2.87000000      10.00000000
O        4.30500000       7.17500000      10.00000000
Mg       2.87000000       5.74000000      10.00000000
O        4.30500000      10.04500000      10.00000000
Mg       2.87000000       8.61000000      10.00000000
O        4.30500000      12.91500000      10.00000000
Mg       2.87000000      11.48000000      10.00000000
O        7.17500000       1.43500000      10.00000000
Mg       5.74000000       0.00000000      10.00000000
O        7.17500000       4.30500000      10.00000000
Mg       5.74000000       2.87000000      10.00000000
O        7.17500000       7.17500000      10.00000000
Mg       5.74000000       5.74000000      10.00000000
O        7.17500000      10.04500000      10.00000000
Mg       5.74000000       8.61000000      10.00000000
O        7.17500000      12.91500000      10.00000000
Mg       5.74000000      11.48000000      10.00000000
O       10.04500000       1.43500000      10.00000000
Mg       8.61000000       0.00000000      10.00000000
O       10.04500000       4.30500000      10.00000000
Mg       8.61000000       2.87000000      10.00000000
O       10.04500000       7.17500000      10.00000000
Mg       8.61000000       5.74000000      10.00000000
O       10.04500000      10.04500000      10.00000000
Mg       8.61000000       8.61000000      10.00000000
O       10.04500000      12.91500000      10.00000000
Mg       8.61000000      11.48000000      10.00000000
O       12.91500000       1.43500000      10.00000000
Mg      11.48000000       0.00000000      10.00000000
O       12.91500000       4.30500000      10.00000000
Mg      11.48000000       2.87000000      10.00000000
O       12.91500000       7.17500000      10.00000000
Mg      11.48000000       5.74000000      10.00000000
O       12.91500000      10.04500000      10.00000000
Mg      11.48000000       8.61000000      10.00000000
O       12.91500000      12.91500000      10.00000000
Mg      11.48000000      11.48000000      10.00000000
Fe       2.10726883       1.08107109      12.55106713
Fe       3.45746521       4.88272223      12.66221851
Fe       2.63222138       7.22674061      12.63484288
Fe       2.93310900      10.28772170      12.65337479
Fe       2.48292569      12.90230291      12.63233535
Fe       4.13138108       2.55827832      12.63231335
Fe       5.80717985       4.34607893      12.62789747
Fe       5.00091188       6.74050206      12.56435812
Fe       4.73822048      12.11638347      12.57841041
Fe       4.40757461      14.52489359      12.64762157
Fe       6.38774744       1.85223518      12.58158175
Fe       8.11598248       3.79584246      12.67850238
Fe       7.45746207       6.18545096      12.63454128
Fe       7.13769489      11.39298364      12.63035130
Fe       6.80211859      13.77500249      12.60888132
Fe       8.64638080       1.23834522      12.64435432
Fe       9.99135129       5.53731497      12.63479885
Fe       9.77005697       8.00440103      12.60196844
Fe       9.38960992      10.42786160      12.54730733
Fe       9.06276084      12.95792604      12.62346812
Fe      14.00446847       1.50223214      12.63270814
Fe      12.32958175       4.69391650      12.53496167
Fe      11.93886602       7.14167395      12.62932915
Fe      11.67032734       9.69980522      12.70073915
Fe      13.00892418      13.68456169      12.62032081
