75
Lattice="14.350000000000001 0.0 0.0 0.0 14.350000000000001 0.0 0.0 0.0 20.0" Properties=species:S:1:pos:R:3 generator=HeteroStructRandomize uuid=a1e4d1bd-5d4e-4330-9450-f7c9110751c8 model_energy=-412.590894015485 uncertainty=7.153759862995785 acquisition_value=-426.8984137414766 time_stamp=5258.704496860504 search_iteration=14 relaxation_steps=57 relax_index=1 final=1 parent_search_iterations="_JSON []" parent_uuids="_JSON []" spawn_uuids="_JSON [\"a1e4d1bd-5d4e-4330-9450-f7c9110751c8\"]" evaluator_energy="_JSON {\"14\": -417.55612689993507}" iteration=14 database_id=14 pbc="T T F"
O        1.43500000       1.43500000      10.00000000
Mg       0.00000000       0.00000000      10.00000000
O        1.43500000       4.30500000      10.00000000
Mg       0.00000000       2.87000000      10.00000000
O        1.43500000       7.17500000      10.00000000
Mg       0.00000000       5.74000000      10.00000000
O        1.43500000      10.04500000      10.00000000
Mg       0.00000000       8.61000000      10.00000000
O        1.43500000      12.91500000      10.00000000
Mg       0.00000000      11.48000000      10.00000000
O        4.30500000       1.43500000      10.00000000
Mg       2.87000000       0.00000000      10.00000000
O        4.30500000       4.30500000      10.00000000
Mg       2.87000000       2.87000000      10.00000000
O        4.30500000       7.17500000      10.00000000
Mg       2.87000000       5.74000000      10.00000000
O        4.30500000      10.04500000      10.00000000
Mg       2.87000000       8.61000000      10.00000000
O        4.30500000      12.91500000      10.00000000
Mg       2.87000000      11.48000000      10.00000000
O        7.17500000       1.43500000      10.00000000
Mg       5.74000000       0.00000000      10.00000000
O        7.17500000       4.30500000      10.00000000
Mg       5.74000000       2.87000000      10.00000000
O        7.17500000       7.17500000      10.00000000
Mg       5.74000000       5.74000000      10.00000000
O        7.17500000      10.04500000      10.00000000
Mg       5.74000000       8.61000000      10.00000000
O        7.17500000      12.91500000      10.00000000
Mg       5.74000000      11.48000000      10.00000000
O       10.04500000       1.43500000      10.00000000
Mg       8.61000000       0.00000000      10.00000000
O       10.04500000       4.30500000      10.00000000
Mg       8.61000000       2.87000000      10.00000000
O       10.04500000       7.17500000      10.00000000
Mg       8.61000000       5.74000000      10.00000000
O       10.04500000      10.04500000      10.00000000
Mg       8.61000000       8.61000000      10.00000000
O       10.04500000      12.91500000      10.00000000
Mg       8.61000000      11.48000000      10.00000000
O       12.91500000       1.43500000      10.00000000
Mg      11.48000000       0.00000000      10.00000000
O       12.91500000       4.30500000      10.00000000
Mg      11.48000000       2.87000000      10.00000000
O       12.91500000       7.17500000      10.00000000
Mg      11.48000000       5.74000000      10.00000000
O       12.91500000      10.04500000      10.00000000
Mg      11.48000000       8.61000000      10.00000000
O       12.91500000      12.91500000      10.00000000
Mg      11.48000000      11.48000000      10.00000000
Fe       1.67577714       1.14137153      12.33630219
Fe       1.18103296       4.26921813      12.33341316
Fe       1.65398876       7.38031691      12.33475309
Fe       1.65352530       9.83305499      12.33092235
Fe       1.22584130      13.10162210      12.33091957
Fe       4.11978839       1.23230703      12.33050627
Fe       4.29029776       4.49326586      12.33017142
Fe       4.06301989       6.95679590      12.33170773
Fe       4.07511960      10.03539455      12.33664157
Fe       4.30451095      13.15217346      12.33489002
Fe       7.38446353       1.24729628      12.33069124
Fe       7.40439446       4.22837611      12.33471521
Fe       7.17550993       7.41208821      12.33287624
Fe       7.15663946       9.85260470      12.33250713
Fe       7.42751219      13.12847099      12.33229996
Fe       9.80366916       1.46647649      12.33088422
Fe       9.83993199       4.09424021      12.33236068
Fe      10.30091436       7.37879696      12.33213987
Fe      10.27844799       9.82907862      12.33350441
Fe       9.84292870      13.07219878      12.33142551
Fe      12.93510500       1.70877279      12.33495838
Fe      13.10300671       4.13498480      12.33022328
Fe      12.71199589       7.38078344      12.33293504
Fe      12.70367672       9.82387705      12.33199221
Fe      13.12349973      12.95107824      12.33495644
