75
Lattice="14.350000000000001 0.0 0.0 0.0 14.350000000000001 0.0 0.0 0.0 20.0" Properties=species:S:1:pos:R:3 generator=HeteroStructRandomize uuid=34108e65-f7dc-4e96-93a0-df66efe9b15c model_energy=-419.4866798405883 uncertainty=1.2378047785713082 acquisition_value=-421.9622893977309 time_stamp=7455.3911254405975 search_iteration=23 relaxation_steps=58 relax_index=1 final=1 parent_search_iterations="_JSON []" parent_uuids="_JSON []" spawn_uuids="_JSON [\"34108e65-f7dc-4e96-93a0-df66efe9b15c\"]" evaluator_energy="_JSON {\"23\": -420.2862612880269}" iteration=23 database_id=23 pbc="T T F"
O        1.43500000       1.43500000      10.00000000
Mg       0.00000000       0.00000000      10.00000000
O        1.43500000       4.30500000      10.00000000
Mg       0.00000000       2.87000000      10.00000000
O        1.43500000       7.17500000      10.00000000
Mg       0.00000000       5.74000000      10.00000000
O        1.43500000      10.04500000      10.00000000
Mg       0.00000000       8.61000000      10.00000000
O        1.43500000      12.91500000      10.00000000
Mg       0.00000000      11.48000000      10.00000000
O        4.30500000       1.43500000      10.00000000
Mg       2.87000000       0.00000000      10.00000000
O        4.30500000       4.30500000      10.00000000
Mg       2.87000000       2.87000000      10.00000000
O        4.30500000       7.17500000      10.00000000
Mg       2.87000000       5.74000000      10.00000000
O        4.30500000      10.04500000      10.00000000
Mg       2.87000000       8.61000000      10.00000000
O        4.30500000      12.91500000      10.00000000
Mg       2.87000000      11.48000000      10.00000000
O        7.17500000       1.43500000      10.00000000
Mg       5.74000000       0.00000000      10.00000000
O        7.17500000       4.30500000      10.00000000
Mg       5.74000000       2.87000000      10.00000000
O        7.17500000       7.17500000      10.00000000
Mg       5.74000000       5.74000000      10.00000000
O        7.17500000      10.04500000      10.00000000
Mg       5.74000000       8.61000000      10.00000000
O        7.17500000      12.91500000      10.00000000
Mg       5.74000000      11.48000000      10.00000000
O       10.04500000       1.43500000      10.00000000
Mg       8.61000000       0.00000000      10.00000000
O       10.04500000       4.30500000      10.00000000
Mg       8.61000000       2.87000000      10.00000000
O       10.04500000       7.17500000      10.00000000
Mg       8.61000000       5.74000000      10.00000000
O       10.04500000      10.04500000      10.00000000
Mg       8.61000000       8.61000000      10.00000000
O       10.04500000      12.91500000      10.00000000
Mg       8.61000000      11.48000000      10.00000000
O       12.91500000       1.43500000      10.00000000
Mg      11.48000000       0.00000000      10.00000000
O       12.91500000       4.30500000      10.00000000
Mg      11.48000000       2.87000000      10.00000000
O       12.91500000       7.17500000      10.00000000
Mg      11.48000000       5.74000000      10.00000000
O       12.91500000      10.04500000      10.00000000
Mg      11.48000000       8.61000000      10.00000000
O       12.91500000      12.91500000      10.00000000
Mg      11.48000000      11.48000000      10.00000000
Fe       0.95639062       1.94272449      12.52311824
Fe       1.67319547       4.28435740      12.17740345
Fe       1.62108655       7.19766981      12.12839447
Fe       1.35754427       9.76183663      12.18695059
Fe       0.65917607      12.13203913      12.59462320
Fe       3.42656539       2.20781923      12.59948225
Fe       4.23265196       4.46678873      12.12631202
Fe       4.13981538       7.18398110      12.11972543
Fe       4.23360645       9.93738904      12.14526000
Fe       4.85846345      12.37039462      12.55512807
Fe       7.47232673       1.38630001      12.15238013
Fe       7.11854142       4.22085204      12.14485457
Fe       7.73621237       6.57672591      12.56467154
Fe       6.55441803      10.67198080      12.57699688
Fe       7.23801398      13.04421770      12.14369876
Fe      10.04482788       1.26956771      12.12338976
Fe       9.45794471       4.84919919      12.55983023
Fe      10.05813672       7.18407540      12.14806105
Fe      10.82599165      10.77460918      12.58710596
Fe      10.06326728      13.08666811      12.12369188
Fe      12.82548151       1.35996291      12.14487581
Fe      13.58919451       3.66028321      12.58324216
Fe      13.65664801       7.93979126      12.58574503
Fe      13.26097104      10.37947498      12.38906597
Fe      12.64071491      12.83527221      12.18490724
