75
Lattice="14.350000000000001 0.0 0.0 0.0 14.350000000000001 0.0 0.0 0.0 20.0" Properties=species:S:1:pos:R:3 generator=RattleGenerator uuid=c26b2a6b-2157-416f-92a5-a7600eaaa2fb model_energy=-430.6383497566572 uncertainty=0.15723262658732454 acquisition_value=-430.95281500983185 time_stamp=22541.034921884537 search_iteration=75 relaxation_steps=100 relax_index=1 final=1 parent_search_iterations="_JSON [65]" parent_uuids="_JSON [\"18c24945-cb05-4d1e-81d2-24c541a6f4c5\"]" spawn_uuids="_JSON [\"ff0ad4c6-972f-486e-a3f8-19d1767f5664\"]" evaluator_energy="_JSON {\"75\": -430.64179123954796}" iteration=75 database_id=75 pbc="T T F"
O        1.43500000       1.43500000      10.00000000
Mg       0.00000000       0.00000000      10.00000000
O        1.43500000       4.30500000      10.00000000
Mg       0.00000000       2.87000000      10.00000000
O        1.43500000       7.17500000      10.00000000
Mg       0.00000000       5.74000000      10.00000000
O        1.43500000      10.04500000      10.00000000
Mg       0.00000000       8.61000000      10.00000000
O        1.43500000      12.91500000      10.00000000
Mg       0.00000000      11.48000000      10.00000000
O        4.30500000       1.43500000      10.00000000
Mg       2.87000000       0.00000000      10.00000000
O        4.30500000       4.30500000      10.00000000
Mg       2.87000000       2.87000000      10.00000000
O        4.30500000       7.17500000      10.00000000
Mg       2.87000000       5.74000000      10.00000000
O        4.30500000      10.04500000      10.00000000
Mg       2.87000000       8.61000000      10.00000000
O        4.30500000      12.91500000      10.00000000
Mg       2.87000000      11.48000000      10.00000000
O        7.17500000       1.43500000      10.00000000
Mg       5.74000000       0.00000000      10.00000000
O        7.17500000       4.30500000      10.00000000
Mg       5.74000000       2.87000000      10.00000000
O        7.17500000       7.17500000      10.00000000
Mg       5.74000000       5.74000000      10.00000000
O        7.17500000      10.04500000      10.00000000
Mg       5.74000000       8.61000000      10.00000000
O        7.17500000      12.91500000      10.00000000
Mg       5.74000000      11.48000000      10.00000000
O       10.04500000       1.43500000      10.00000000
Mg       8.61000000       0.00000000      10.00000000
O       10.04500000       4.30500000      10.00000000
Mg       8.61000000       2.87000000      10.00000000
O       10.04500000       7.17500000      10.00000000
Mg       8.61000000       5.74000000      10.00000000
O       10.04500000      10.04500000      10.00000000
Mg       8.61000000       8.61000000      10.00000000
O       10.04500000      12.91500000      10.00000000
Mg       8.61000000      11.48000000      10.00000000
O       12.91500000       1.43500000      10.00000000
Mg      11.48000000       0.00000000      10.00000000
O       12.91500000       4.30500000      10.00000000
Mg      11.48000000       2.87000000      10.00000000
O       12.91500000       7.17500000      10.00000000
Mg      11.48000000       5.74000000      10.00000000
O       12.91500000      10.04500000      10.00000000
Mg      11.48000000       8.61000000      10.00000000
O       12.91500000      12.91500000      10.00000000
Mg      11.48000000      11.48000000      10.00000000
Fe       2.59856230       2.57669412      13.66802114
Fe       0.09226412       2.81045353      14.13622022
Fe      -0.97893268       5.14825085      14.10084968
Fe       1.00479195       3.98170122      12.39103290
Fe       2.57969404      14.29241868      13.35448647
Fe       4.13124965       1.33976775      12.22954528
Fe       1.34073535       1.48657189      12.12549842
Fe       6.87815737       9.20256886      14.27061548
Fe       5.57992764      11.12840321      13.36538377
Fe       4.57339653      13.18885978      12.37474507
Fe       9.05468615       6.13592068      13.95164594
Fe       7.83115379       7.73907023      12.58104833
Fe       9.31868021       8.59432357      14.33546226
Fe       7.21289075      10.04188879      12.07235549
Fe       7.05736367      12.64949736      12.31699555
Fe      11.98123982       3.10085255      13.93958531
Fe      10.92228894       4.98330840      12.80566241
Fe      10.16178081       7.27516028      12.17140229
Fe       9.61208154       9.71599668      12.29158948
Fe       8.29939131      11.11774708      13.84338047
Fe      13.31745698       1.81882160      12.34125880
Fe      13.03007167       4.22836483      12.07040484
Fe      11.32202469       6.77711149      14.42841490
Fe      11.62517062       8.85694650      13.24905085
Fe      12.61740611       6.77233026      12.37318759
