75
Lattice="14.350000000000001 0.0 0.0 0.0 14.350000000000001 0.0 0.0 0.0 20.0" Properties=species:S:1:pos:R:3 generator=HeteroStructRandomize uuid=31bdda0e-2815-4477-9821-b3e72779b13f model_energy=-416.0816260608162 uncertainty=5.883530141006762 acquisition_value=-427.8486863428297 time_stamp=5255.538633823395 search_iteration=16 relaxation_steps=36 relax_index=1 final=1 parent_search_iterations="_JSON []" parent_uuids="_JSON []" spawn_uuids="_JSON [\"31bdda0e-2815-4477-9821-b3e72779b13f\"]" evaluator_energy="_JSON {\"16\": -417.9920315537232}" iteration=16 database_id=16 pbc="T T F"
O        1.43500000       1.43500000      10.00000000
Mg       0.00000000       0.00000000      10.00000000
O        1.43500000       4.30500000      10.00000000
Mg       0.00000000       2.87000000      10.00000000
O        1.43500000       7.17500000      10.00000000
Mg       0.00000000       5.74000000      10.00000000
O        1.43500000      10.04500000      10.00000000
Mg       0.00000000       8.61000000      10.00000000
O        1.43500000      12.91500000      10.00000000
Mg       0.00000000      11.48000000      10.00000000
O        4.30500000       1.43500000      10.00000000
Mg       2.87000000       0.00000000      10.00000000
O        4.30500000       4.30500000      10.00000000
Mg       2.87000000       2.87000000      10.00000000
O        4.30500000       7.17500000      10.00000000
Mg       2.87000000       5.74000000      10.00000000
O        4.30500000      10.04500000      10.00000000
Mg       2.87000000       8.61000000      10.00000000
O        4.30500000      12.91500000      10.00000000
Mg       2.87000000      11.48000000      10.00000000
O        7.17500000       1.43500000      10.00000000
Mg       5.74000000       0.00000000      10.00000000
O        7.17500000       4.30500000      10.00000000
Mg       5.74000000       2.87000000      10.00000000
O        7.17500000       7.17500000      10.00000000
Mg       5.74000000       5.74000000      10.00000000
O        7.17500000      10.04500000      10.00000000
Mg       5.74000000       8.61000000      10.00000000
O        7.17500000      12.91500000      10.00000000
Mg       5.74000000      11.48000000      10.00000000
O       10.04500000       1.43500000      10.00000000
Mg       8.61000000       0.00000000      10.00000000
O       10.04500000       4.30500000      10.00000000
Mg       8.61000000       2.87000000      10.00000000
O       10.04500000       7.17500000      10.00000000
Mg       8.61000000       5.74000000      10.00000000
O       10.04500000      10.04500000      10.00000000
Mg       8.61000000       8.61000000      10.00000000
O       10.04500000      12.91500000      10.00000000
Mg       8.61000000      11.48000000      10.00000000
O       12.91500000       1.43500000      10.00000000
Mg      11.48000000       0.00000000      10.00000000
O       12.91500000       4.30500000      10.00000000
Mg      11.48000000       2.87000000      10.00000000
O       12.91500000       7.17500000      10.00000000
Mg      11.48000000       5.74000000      10.00000000
O       12.91500000      10.04500000      10.00000000
Mg      11.48000000       8.61000000      10.00000000
O       12.91500000      12.91500000      10.00000000
Mg      11.48000000      11.48000000      10.00000000
Fe       1.70987920       1.17618853      12.16488261
Fe       1.14671079       4.30533169      12.17342016
Fe       1.71551377       7.44506556      12.16511507
Fe       1.72275610       9.85986471      12.16392607
Fe       1.44348921      13.10237997      12.17808895
Fe       4.11895049       1.68336143      12.16436908
Fe       4.31734394       4.10436352      12.17766281
Fe       4.12014537       7.35142139      12.16539182
Fe       4.12580182       9.76534225      12.16279326
Fe       4.60316305      12.90707224      12.17294193
Fe       7.34789983       1.25728297      12.16285169
Fe       7.44182170       4.49663055      12.16195771
Fe       7.35836244       6.89517394      12.16400341
Fe       7.35117477      10.05683911      12.17852244
Fe       7.00110327      13.20088721      12.16194847
Fe       9.76354391       1.42524041      12.17330583
Fe       9.84967253       4.57747164      12.16075235
Fe       9.77212784       6.98236050      12.16138098
Fe       9.76850026      10.24077611      12.16464012
Fe      10.21014963      12.64696937      12.16416859
Fe      12.93210568       1.71692041      12.17318519
Fe      13.07763499       4.12560146      12.16596826
Fe      12.90129437       7.36061047      12.17597724
Fe      12.90964803       9.76275566      12.17333621
Fe      12.62329208      12.91445957      12.17377923
