75
Lattice="14.350000000000001 0.0 0.0 0.0 14.350000000000001 0.0 0.0 0.0 20.0" Properties=species:S:1:pos:R:3 generator=HeteroStructRandomize uuid=77daaa9d-4f24-4dcc-abf0-50a965f3ea7b model_energy=-415.37809531786854 uncertainty=3.15092265911107 acquisition_value=-421.6799406360907 time_stamp=11282.296610593796 search_iteration=24 relaxation_steps=52 relax_index=1 final=1 parent_search_iterations="_JSON []" parent_uuids="_JSON []" spawn_uuids="_JSON [\"77daaa9d-4f24-4dcc-abf0-50a965f3ea7b\"]" evaluator_energy="_JSON {\"24\": -416.2026029005234}" iteration=24 database_id=24 pbc="T T F"
O        1.43500000       1.43500000      10.00000000
Mg       0.00000000       0.00000000      10.00000000
O        1.43500000       4.30500000      10.00000000
Mg       0.00000000       2.87000000      10.00000000
O        1.43500000       7.17500000      10.00000000
Mg       0.00000000       5.74000000      10.00000000
O        1.43500000      10.04500000      10.00000000
Mg       0.00000000       8.61000000      10.00000000
O        1.43500000      12.91500000      10.00000000
Mg       0.00000000      11.48000000      10.00000000
O        4.30500000       1.43500000      10.00000000
Mg       2.87000000       0.00000000      10.00000000
O        4.30500000       4.30500000      10.00000000
Mg       2.87000000       2.87000000      10.00000000
O        4.30500000       7.17500000      10.00000000
Mg       2.87000000       5.74000000      10.00000000
O        4.30500000      10.04500000      10.00000000
Mg       2.87000000       8.61000000      10.00000000
O        4.30500000      12.91500000      10.00000000
Mg       2.87000000      11.48000000      10.00000000
O        7.17500000       1.43500000      10.00000000
Mg       5.74000000       0.00000000      10.00000000
O        7.17500000       4.30500000      10.00000000
Mg       5.74000000       2.87000000      10.00000000
O        7.17500000       7.17500000      10.00000000
Mg       5.74000000       5.74000000      10.00000000
O        7.17500000      10.04500000      10.00000000
Mg       5.74000000       8.61000000      10.00000000
O        7.17500000      12.91500000      10.00000000
Mg       5.74000000      11.48000000      10.00000000
O       10.04500000       1.43500000      10.00000000
Mg       8.61000000       0.00000000      10.00000000
O       10.04500000       4.30500000      10.00000000
Mg       8.61000000       2.87000000      10.00000000
O       10.04500000       7.17500000      10.00000000
Mg       8.61000000       5.74000000      10.00000000
O       10.04500000      10.04500000      10.00000000
Mg       8.61000000       8.61000000      10.00000000
O       10.04500000      12.91500000      10.00000000
Mg       8.61000000      11.48000000      10.00000000
O       12.91500000       1.43500000      10.00000000
Mg      11.48000000       0.00000000      10.00000000
O       12.91500000       4.30500000      10.00000000
Mg      11.48000000       2.87000000      10.00000000
O       12.91500000       7.17500000      10.00000000
Mg      11.48000000       5.74000000      10.00000000
O       12.91500000      10.04500000      10.00000000
Mg      11.48000000       8.61000000      10.00000000
O       12.91500000      12.91500000      10.00000000
Mg      11.48000000      11.48000000      10.00000000
Fe       1.75597336       1.23908905      12.24589906
Fe       1.57254595       4.88173096      12.28562940
Fe       1.01773035       7.26431511      12.25323992
Fe       1.80920026       9.63446714      12.27987320
Fe       1.32510820      13.18668839      12.22778041
Fe       4.18270536       0.94096558      12.27134882
Fe       4.01305713       4.62141278      12.25567522
Fe       4.73651076       6.92053530      12.26627302
Fe       4.17270586      10.41750421      12.24976532
Fe       3.81228702      12.87645020      12.26281600
Fe       7.68018375       1.71952379      12.28511416
Fe       7.75826677       4.15227961      12.28842614
Fe       7.02029036       7.70377473      12.27966515
Fe       6.66674161      10.13959007      12.26562451
Fe       7.27521968      12.53340261      12.25098404
Fe      10.03658685       0.92484473      12.26540535
Fe      10.16119590       4.68295633      12.24529415
Fe      10.51379320       7.06947282      12.26606571
Fe      10.25838854      10.40473918      12.25170866
Fe       9.70515932      12.82135797      12.23916576
Fe      12.41260712       1.51408048      12.27005078
Fe      12.55749363       3.94168877      12.26984255
Fe      12.91980768       7.63956204      12.26015683
Fe      12.69416162      10.17439230      12.22440081
Fe      13.33299730      12.59959128      12.27596915
