75
Lattice="14.350000000000001 0.0 0.0 0.0 14.350000000000001 0.0 0.0 0.0 20.0" Properties=species:S:1:pos:R:3 generator=HeteroStructRandomize uuid=e8c9430f-b83e-4355-998f-06ab3d71359a model_energy=-413.51757366216 uncertainty=3.9015523153888925 acquisition_value=-421.32067829293777 time_stamp=6810.462481737137 search_iteration=20 relaxation_steps=100 relax_index=1 final=1 parent_search_iterations="_JSON []" parent_uuids="_JSON []" spawn_uuids="_JSON [\"e8c9430f-b83e-4355-998f-06ab3d71359a\"]" evaluator_energy="_JSON {\"20\": -420.51991588730414}" iteration=20 database_id=20 pbc="T T F"
O        1.43500000       1.43500000      10.00000000
Mg       0.00000000       0.00000000      10.00000000
O        1.43500000       4.30500000      10.00000000
Mg       0.00000000       2.87000000      10.00000000
O        1.43500000       7.17500000      10.00000000
Mg       0.00000000       5.74000000      10.00000000
O        1.43500000      10.04500000      10.00000000
Mg       0.00000000       8.61000000      10.00000000
O        1.43500000      12.91500000      10.00000000
Mg       0.00000000      11.48000000      10.00000000
O        4.30500000       1.43500000      10.00000000
Mg       2.87000000       0.00000000      10.00000000
O        4.30500000       4.30500000      10.00000000
Mg       2.87000000       2.87000000      10.00000000
O        4.30500000       7.17500000      10.00000000
Mg       2.87000000       5.74000000      10.00000000
O        4.30500000      10.04500000      10.00000000
Mg       2.87000000       8.61000000      10.00000000
O        4.30500000      12.91500000      10.00000000
Mg       2.87000000      11.48000000      10.00000000
O        7.17500000       1.43500000      10.00000000
Mg       5.74000000       0.00000000      10.00000000
O        7.17500000       4.30500000      10.00000000
Mg       5.74000000       2.87000000      10.00000000
O        7.17500000       7.17500000      10.00000000
Mg       5.74000000       5.74000000      10.00000000
O        7.17500000      10.04500000      10.00000000
Mg       5.74000000       8.61000000      10.00000000
O        7.17500000      12.91500000      10.00000000
Mg       5.74000000      11.48000000      10.00000000
O       10.04500000       1.43500000      10.00000000
Mg       8.61000000       0.00000000      10.00000000
O       10.04500000       4.30500000      10.00000000
Mg       8.61000000       2.87000000      10.00000000
O       10.04500000       7.17500000      10.00000000
Mg       8.61000000       5.74000000      10.00000000
O       10.04500000      10.04500000      10.00000000
Mg       8.61000000       8.61000000      10.00000000
O       10.04500000      12.91500000      10.00000000
Mg       8.61000000      11.48000000      10.00000000
O       12.91500000       1.43500000      10.00000000
Mg      11.48000000       0.00000000      10.00000000
O       12.91500000       4.30500000      10.00000000
Mg      11.48000000       2.87000000      10.00000000
O       12.91500000       7.17500000      10.00000000
Mg      11.48000000       5.74000000      10.00000000
O       12.91500000      10.04500000      10.00000000
Mg      11.48000000       8.61000000      10.00000000
O       12.91500000      12.91500000      10.00000000
Mg      11.48000000      11.48000000      10.00000000
Fe       1.45122072       1.41386266      12.16073833
Fe       0.88828777       4.80929371      12.39395464
Fe       1.44674466       7.15456847      12.16091903
Fe       1.99652431       9.47037479      12.39906321
Fe       0.86207836      13.50863459      12.41277700
Fe       4.72063478       0.94014961      12.35784171
Fe       5.06943254       3.44071168      12.47817459
Fe       3.75703230       7.76391218      12.40118481
Fe       4.27509522      10.15897477      12.15807422
Fe       4.50204120      12.66599017      12.19855655
Fe       6.96612785       1.64797736      12.19753545
Fe       7.40239933       4.02817190      12.22391502
Fe       7.78172006       6.47318057      12.43544262
Fe       6.57292348      10.74273126      12.42969809
Fe       6.64438743      13.49474434      12.40340468
Fe       9.29701075       2.25867896      12.46747445
Fe       9.64846666       4.75138137      12.34345643
Fe       9.98455205       7.24828893      12.15640418
Fe      10.13980541       9.89938813      12.16988475
Fe      10.59861335      12.30649659      12.40900552
Fe      13.46324986       0.94610644      12.38823425
Fe      12.92686613       4.28842754      12.16346325
Fe      13.47205541       6.57477498      12.40861830
Fe      12.38059909      10.61448190      12.40514312
Fe      12.89098926      12.95452487      12.16362896
