75
Lattice="14.350000000000001 0.0 0.0 0.0 14.350000000000001 0.0 0.0 0.0 20.0" Properties=species:S:1:pos:R:3 generator=RattleGenerator uuid=48016aff-f9ff-44ab-b3fe-b64d4fc724d6 model_energy=-414.2845333977116 uncertainty=2.8639175716743335 acquisition_value=-420.01236854106025 time_stamp=9615.213332653046 search_iteration=29 relaxation_steps=85 relax_index=1 final=1 parent_search_iterations="_JSON [21]" parent_uuids="_JSON [\"76116309-dd68-45dc-8e90-75c1be0fff3d\"]" spawn_uuids="_JSON [\"76116309-dd68-45dc-8e90-75c1be0fff3d\"]" evaluator_energy="_JSON {\"29\": -416.0634356868664}" iteration=29 database_id=29 pbc="T T F"
O        1.43500000       1.43500000      10.00000000
Mg       0.00000000       0.00000000      10.00000000
O        1.43500000       4.30500000      10.00000000
Mg       0.00000000       2.87000000      10.00000000
O        1.43500000       7.17500000      10.00000000
Mg       0.00000000       5.74000000      10.00000000
O        1.43500000      10.04500000      10.00000000
Mg       0.00000000       8.61000000      10.00000000
O        1.43500000      12.91500000      10.00000000
Mg       0.00000000      11.48000000      10.00000000
O        4.30500000       1.43500000      10.00000000
Mg       2.87000000       0.00000000      10.00000000
O        4.30500000       4.30500000      10.00000000
Mg       2.87000000       2.87000000      10.00000000
O        4.30500000       7.17500000      10.00000000
Mg       2.87000000       5.74000000      10.00000000
O        4.30500000      10.04500000      10.00000000
Mg       2.87000000       8.61000000      10.00000000
O        4.30500000      12.91500000      10.00000000
Mg       2.87000000      11.48000000      10.00000000
O        7.17500000       1.43500000      10.00000000
Mg       5.74000000       0.00000000      10.00000000
O        7.17500000       4.30500000      10.00000000
Mg       5.74000000       2.87000000      10.00000000
O        7.17500000       7.17500000      10.00000000
Mg       5.74000000       5.74000000      10.00000000
O        7.17500000      10.04500000      10.00000000
Mg       5.74000000       8.61000000      10.00000000
O        7.17500000      12.91500000      10.00000000
Mg       5.74000000      11.48000000      10.00000000
O       10.04500000       1.43500000      10.00000000
Mg       8.61000000       0.00000000      10.00000000
O       10.04500000       4.30500000      10.00000000
Mg       8.61000000       2.87000000      10.00000000
O       10.04500000       7.17500000      10.00000000
Mg       8.61000000       5.74000000      10.00000000
O       10.04500000      10.04500000      10.00000000
Mg       8.61000000       8.61000000      10.00000000
O       10.04500000      12.91500000      10.00000000
Mg       8.61000000      11.48000000      10.00000000
O       12.91500000       1.43500000      10.00000000
Mg      11.48000000       0.00000000      10.00000000
O       12.91500000       4.30500000      10.00000000
Mg      11.48000000       2.87000000      10.00000000
O       12.91500000       7.17500000      10.00000000
Mg      11.48000000       5.74000000      10.00000000
O       12.91500000      10.04500000      10.00000000
Mg      11.48000000       8.61000000      10.00000000
O       12.91500000      12.91500000      10.00000000
Mg      11.48000000      11.48000000      10.00000000
Fe       1.94200347       2.94633794      13.21108947
Fe       1.10805256       5.03208012      12.56716887
Fe       2.83601044       7.21642759      12.57226393
Fe       2.15187240       9.58532966      12.58609727
Fe       1.49627926      11.85459693      12.59341380
Fe       4.19057052       2.73124631      12.55960101
Fe       5.81438686       4.41973229      12.56315558
Fe       5.17902048       6.74857577      12.60087518
Fe       4.50576690       8.98466137      12.59484791
Fe       4.00842864      11.29189324      12.56857269
Fe       7.83911563       0.68887307      12.60787038
Fe       7.50935377       6.09721596      12.58443929
Fe       6.99685172       8.38185011      12.58343594
Fe       6.32373393      10.60291075      12.59613486
Fe       7.25950839      12.74994931      12.20804730
Fe      10.08738670       1.28592814      12.16861259
Fe      10.02836143       5.50757815      12.58373428
Fe       9.34542606       7.74263753      12.60230045
Fe       8.62650994      10.10831306      12.55650969
Fe       9.57268573      13.32859225      12.47442194
Fe      15.91445302       0.87462927      12.25581088
Fe      12.45702423       4.89583332      12.57906066
Fe      11.67245400       7.16480668      12.58134339
Fe      14.17880286      10.16404079      12.58108532
Fe      13.50179778      12.48881918      12.57690417
