75
Lattice="14.350000000000001 0.0 0.0 0.0 14.350000000000001 0.0 0.0 0.0 20.0" Properties=species:S:1:pos:R:3 generator=RattleGenerator uuid=6aa71052-c442-43c8-9020-0c6c30fc8658 model_energy=-431.4625877845597 uncertainty=0.23488009006448748 acquisition_value=-431.93234796468863 time_stamp=25857.625079393387 search_iteration=90 relaxation_steps=100 relax_index=1 final=1 parent_search_iterations="_JSON [79]" parent_uuids="_JSON [\"1ff643ae-b6c7-4f49-bff3-ea279a4365ba\"]" spawn_uuids="_JSON [\"ff0ad4c6-972f-486e-a3f8-19d1767f5664\"]" evaluator_energy="_JSON {\"90\": -431.4878329015287}" iteration=90 database_id=90 pbc="T T F"
O        1.43500000       1.43500000      10.00000000
Mg       0.00000000       0.00000000      10.00000000
O        1.43500000       4.30500000      10.00000000
Mg       0.00000000       2.87000000      10.00000000
O        1.43500000       7.17500000      10.00000000
Mg       0.00000000       5.74000000      10.00000000
O        1.43500000      10.04500000      10.00000000
Mg       0.00000000       8.61000000      10.00000000
O        1.43500000      12.91500000      10.00000000
Mg       0.00000000      11.48000000      10.00000000
O        4.30500000       1.43500000      10.00000000
Mg       2.87000000       0.00000000      10.00000000
O        4.30500000       4.30500000      10.00000000
Mg       2.87000000       2.87000000      10.00000000
O        4.30500000       7.17500000      10.00000000
Mg       2.87000000       5.74000000      10.00000000
O        4.30500000      10.04500000      10.00000000
Mg       2.87000000       8.61000000      10.00000000
O        4.30500000      12.91500000      10.00000000
Mg       2.87000000      11.48000000      10.00000000
O        7.17500000       1.43500000      10.00000000
Mg       5.74000000       0.00000000      10.00000000
O        7.17500000       4.30500000      10.00000000
Mg       5.74000000       2.87000000      10.00000000
O        7.17500000       7.17500000      10.00000000
Mg       5.74000000       5.74000000      10.00000000
O        7.17500000      10.04500000      10.00000000
Mg       5.74000000       8.61000000      10.00000000
O        7.17500000      12.91500000      10.00000000
Mg       5.74000000      11.48000000      10.00000000
O       10.04500000       1.43500000      10.00000000
Mg       8.61000000       0.00000000      10.00000000
O       10.04500000       4.30500000      10.00000000
Mg       8.61000000       2.87000000      10.00000000
O       10.04500000       7.17500000      10.00000000
Mg       8.61000000       5.74000000      10.00000000
O       10.04500000      10.04500000      10.00000000
Mg       8.61000000       8.61000000      10.00000000
O       10.04500000      12.91500000      10.00000000
Mg       8.61000000      11.48000000      10.00000000
O       12.91500000       1.43500000      10.00000000
Mg      11.48000000       0.00000000      10.00000000
O       12.91500000       4.30500000      10.00000000
Mg      11.48000000       2.87000000      10.00000000
O       12.91500000       7.17500000      10.00000000
Mg      11.48000000       5.74000000      10.00000000
O       12.91500000      10.04500000      10.00000000
Mg      11.48000000       8.61000000      10.00000000
O       12.91500000      12.91500000      10.00000000
Mg      11.48000000      11.48000000      10.00000000
Fe      -0.21817709       2.69290511      13.09383225
Fe      -1.51934507       3.55085723      15.00944828
Fe      -0.99178083       7.65180382      14.47498116
Fe       0.60007791       6.84633870      12.55758700
Fe       4.42134705      12.74779536      12.32459493
Fe      -0.21111464       5.32258172      14.17576062
Fe       1.21658420       4.45572923      12.29313561
Fe       6.10472972       8.93503639      13.85121089
Fe       4.70286370      10.32631591      12.26574399
Fe       6.81797990      12.42426925      12.40065073
Fe       9.01605588       6.07750955      13.82131127
Fe       7.59083762       7.55650237      12.33247796
Fe       8.50504419       8.51954461      14.25003501
Fe       7.18512001      10.02536965      12.12898067
Fe       5.61542836      11.35879779      14.14828680
Fe      11.62013443       5.54240852      14.13405447
Fe      10.45240707       4.76238467      12.24523691
Fe      10.13618726       7.28012148      12.16812026
Fe       9.63613059       9.64236933      12.51409853
Fe       8.02467272      10.92499745      14.09118790
Fe      11.56989763       2.85467463      13.15144723
Fe      13.02536412       4.52922212      12.21170479
Fe      10.87506592       7.88574133      14.31677995
Fe      12.11487450       9.21631506      12.78053936
Fe      12.53395206       6.87526447      12.34869717
