75
Lattice="14.350000000000001 0.0 0.0 0.0 14.350000000000001 0.0 0.0 0.0 20.0" Properties=species:S:1:pos:R:3 generator=HeteroStructRandomize uuid=f8d83dd1-7b02-4963-b8db-53d165071e02 model_energy=-413.7954598989442 uncertainty=5.018938397457793 acquisition_value=-423.8333366938598 time_stamp=5858.040767431259 search_iteration=17 relaxation_steps=25 relax_index=1 final=1 parent_search_iterations="_JSON []" parent_uuids="_JSON []" spawn_uuids="_JSON [\"f8d83dd1-7b02-4963-b8db-53d165071e02\"]" evaluator_energy="_JSON {\"17\": -417.49425631380655}" iteration=17 database_id=17 pbc="T T F"
O        1.43500000       1.43500000      10.00000000
Mg       0.00000000       0.00000000      10.00000000
O        1.43500000       4.30500000      10.00000000
Mg       0.00000000       2.87000000      10.00000000
O        1.43500000       7.17500000      10.00000000
Mg       0.00000000       5.74000000      10.00000000
O        1.43500000      10.04500000      10.00000000
Mg       0.00000000       8.61000000      10.00000000
O        1.43500000      12.91500000      10.00000000
Mg       0.00000000      11.48000000      10.00000000
O        4.30500000       1.43500000      10.00000000
Mg       2.87000000       0.00000000      10.00000000
O        4.30500000       4.30500000      10.00000000
Mg       2.87000000       2.87000000      10.00000000
O        4.30500000       7.17500000      10.00000000
Mg       2.87000000       5.74000000      10.00000000
O        4.30500000      10.04500000      10.00000000
Mg       2.87000000       8.61000000      10.00000000
O        4.30500000      12.91500000      10.00000000
Mg       2.87000000      11.48000000      10.00000000
O        7.17500000       1.43500000      10.00000000
Mg       5.74000000       0.00000000      10.00000000
O        7.17500000       4.30500000      10.00000000
Mg       5.74000000       2.87000000      10.00000000
O        7.17500000       7.17500000      10.00000000
Mg       5.74000000       5.74000000      10.00000000
O        7.17500000      10.04500000      10.00000000
Mg       5.74000000       8.61000000      10.00000000
O        7.17500000      12.91500000      10.00000000
Mg       5.74000000      11.48000000      10.00000000
O       10.04500000       1.43500000      10.00000000
Mg       8.61000000       0.00000000      10.00000000
O       10.04500000       4.30500000      10.00000000
Mg       8.61000000       2.87000000      10.00000000
O       10.04500000       7.17500000      10.00000000
Mg       8.61000000       5.74000000      10.00000000
O       10.04500000      10.04500000      10.00000000
Mg       8.61000000       8.61000000      10.00000000
O       10.04500000      12.91500000      10.00000000
Mg       8.61000000      11.48000000      10.00000000
O       12.91500000       1.43500000      10.00000000
Mg      11.48000000       0.00000000      10.00000000
O       12.91500000       4.30500000      10.00000000
Mg      11.48000000       2.87000000      10.00000000
O       12.91500000       7.17500000      10.00000000
Mg      11.48000000       5.74000000      10.00000000
O       12.91500000      10.04500000      10.00000000
Mg      11.48000000       8.61000000      10.00000000
O       12.91500000      12.91500000      10.00000000
Mg      11.48000000      11.48000000      10.00000000
Fe       1.43319957       1.43461408      12.12432677
Fe       1.43396124       4.30428863      12.12407780
Fe       1.43458405       7.17782224      12.12023021
Fe       1.43676481      10.04535868      12.12447632
Fe       1.43625584      12.91831259      12.12202025
Fe       4.30356557       1.43411488      12.12537203
Fe       4.30628200       4.30697678      12.12459863
Fe       4.30735975       7.17330012      12.12487816
Fe       4.30914660      10.04553088      12.12521833
Fe       4.30758281      12.91429955      12.12586162
Fe       7.17544043       1.43526978      12.12533672
Fe       7.17395416       4.30507417      12.12464436
Fe       7.17586002       7.17593056      12.12537694
Fe       7.17633964      10.04461440      12.12583127
Fe       7.17679470      12.91364210      12.12517611
Fe      10.04447669       1.43435197      12.12453062
Fe      10.04298397       4.30422018      12.12324645
Fe      10.04507154       7.17440244      12.12403287
Fe      10.04545198      10.04566350      12.12518865
Fe      10.04600371      12.91381327      12.12408615
Fe      12.91332353       1.43457039      12.12449321
Fe      12.91304568       4.30445230      12.12491024
Fe      12.91790175       7.17451911      12.12652637
Fe      12.91728908      10.04400855      12.12403113
Fe      12.91564307      12.91685519      12.12514338
