75
Lattice="14.350000000000001 0.0 0.0 0.0 14.350000000000001 0.0 0.0 0.0 20.0" Properties=species:S:1:pos:R:3 generator=RattleGenerator uuid=d1b53458-5a96-49e8-820b-0154308fe137 model_energy=-429.6318591286945 uncertainty=0.35220702386578945 acquisition_value=-430.33627317642606 time_stamp=19532.020137548447 search_iteration=61 relaxation_steps=100 relax_index=1 final=1 parent_search_iterations="_JSON [36]" parent_uuids="_JSON [\"f3d9fe59-4d1b-4eb9-992c-7b56f76ca090\"]" spawn_uuids="_JSON [\"ff0ad4c6-972f-486e-a3f8-19d1767f5664\"]" evaluator_energy="_JSON {\"61\": -430.30834357047985}" iteration=61 database_id=61 pbc="T T F"
O        1.43500000       1.43500000      10.00000000
Mg       0.00000000       0.00000000      10.00000000
O        1.43500000       4.30500000      10.00000000
Mg       0.00000000       2.87000000      10.00000000
O        1.43500000       7.17500000      10.00000000
Mg       0.00000000       5.74000000      10.00000000
O        1.43500000      10.04500000      10.00000000
Mg       0.00000000       8.61000000      10.00000000
O        1.43500000      12.91500000      10.00000000
Mg       0.00000000      11.48000000      10.00000000
O        4.30500000       1.43500000      10.00000000
Mg       2.87000000       0.00000000      10.00000000
O        4.30500000       4.30500000      10.00000000
Mg       2.87000000       2.87000000      10.00000000
O        4.30500000       7.17500000      10.00000000
Mg       2.87000000       5.74000000      10.00000000
O        4.30500000      10.04500000      10.00000000
Mg       2.87000000       8.61000000      10.00000000
O        4.30500000      12.91500000      10.00000000
Mg       2.87000000      11.48000000      10.00000000
O        7.17500000       1.43500000      10.00000000
Mg       5.74000000       0.00000000      10.00000000
O        7.17500000       4.30500000      10.00000000
Mg       5.74000000       2.87000000      10.00000000
O        7.17500000       7.17500000      10.00000000
Mg       5.74000000       5.74000000      10.00000000
O        7.17500000      10.04500000      10.00000000
Mg       5.74000000       8.61000000      10.00000000
O        7.17500000      12.91500000      10.00000000
Mg       5.74000000      11.48000000      10.00000000
O       10.04500000       1.43500000      10.00000000
Mg       8.61000000       0.00000000      10.00000000
O       10.04500000       4.30500000      10.00000000
Mg       8.61000000       2.87000000      10.00000000
O       10.04500000       7.17500000      10.00000000
Mg       8.61000000       5.74000000      10.00000000
O       10.04500000      10.04500000      10.00000000
Mg       8.61000000       8.61000000      10.00000000
O       10.04500000      12.91500000      10.00000000
Mg       8.61000000      11.48000000      10.00000000
O       12.91500000       1.43500000      10.00000000
Mg      11.48000000       0.00000000      10.00000000
O       12.91500000       4.30500000      10.00000000
Mg      11.48000000       2.87000000      10.00000000
O       12.91500000       7.17500000      10.00000000
Mg      11.48000000       5.74000000      10.00000000
O       12.91500000      10.04500000      10.00000000
Mg      11.48000000       8.61000000      10.00000000
O       12.91500000      12.91500000      10.00000000
Mg      11.48000000      11.48000000      10.00000000
Fe       1.37550362       1.56275924      12.28753581
Fe       0.06897965       2.87644176      14.07348540
Fe      -0.49235583       5.24737609      14.10084968
Fe       0.71606805       6.54936669      12.53689230
Fe       2.04477217      13.55054686      12.60084587
Fe       3.78447490       0.98222555      12.48907795
Fe       1.07897701       4.11324264      12.32577952
Fe       6.36696822       8.97300778      14.10337962
Fe       5.50077020      11.12133426      13.34427843
Fe       4.43150016      12.99088558      12.21783991
Fe       9.05136191       6.13747485      13.95973974
Fe       7.58709749       7.51882363      12.38266003
Fe       8.74087515       8.57607664      14.13126022
Fe       7.26493691       9.97616420      12.11484453
Fe       7.01759870      12.62672953      12.31460243
Fe      12.00113087       3.39639149      13.96413654
Fe      10.47503597       4.70804989      12.34684028
Fe      10.08397913       7.20101689      12.18764267
Fe       9.71107696       9.71048967      12.37289650
Fe       8.00787759      10.96594516      14.00967064
Fe      13.24603541       1.90762721      12.29869450
Fe      12.98028423       4.41092397      12.14476848
Fe      11.49122261       5.81036086      14.11590651
Fe      11.17375228       8.26064025      13.95171892
Fe      12.62904084       6.86988381      12.36652034
