75
Lattice="14.350000000000001 0.0 0.0 0.0 14.350000000000001 0.0 0.0 0.0 20.0" Properties=species:S:1:pos:R:3 generator=HeteroStructRandomize uuid=7a431792-023c-42c1-b467-bf5f5aef317f model_energy=-418.2017377341621 uncertainty=1.4931331075314993 acquisition_value=-421.1880039492251 time_stamp=8052.563980340958 search_iteration=23 relaxation_steps=58 relax_index=1 final=1 parent_search_iterations="_JSON []" parent_uuids="_JSON []" spawn_uuids="_JSON [\"7a431792-023c-42c1-b467-bf5f5aef317f\"]" evaluator_energy="_JSON {\"23\": -417.9145645861101}" iteration=23 database_id=23 pbc="T T F"
O        1.43500000       1.43500000      10.00000000
Mg       0.00000000       0.00000000      10.00000000
O        1.43500000       4.30500000      10.00000000
Mg       0.00000000       2.87000000      10.00000000
O        1.43500000       7.17500000      10.00000000
Mg       0.00000000       5.74000000      10.00000000
O        1.43500000      10.04500000      10.00000000
Mg       0.00000000       8.61000000      10.00000000
O        1.43500000      12.91500000      10.00000000
Mg       0.00000000      11.48000000      10.00000000
O        4.30500000       1.43500000      10.00000000
Mg       2.87000000       0.00000000      10.00000000
O        4.30500000       4.30500000      10.00000000
Mg       2.87000000       2.87000000      10.00000000
O        4.30500000       7.17500000      10.00000000
Mg       2.87000000       5.74000000      10.00000000
O        4.30500000      10.04500000      10.00000000
Mg       2.87000000       8.61000000      10.00000000
O        4.30500000      12.91500000      10.00000000
Mg       2.87000000      11.48000000      10.00000000
O        7.17500000       1.43500000      10.00000000
Mg       5.74000000       0.00000000      10.00000000
O        7.17500000       4.30500000      10.00000000
Mg       5.74000000       2.87000000      10.00000000
O        7.17500000       7.17500000      10.00000000
Mg       5.74000000       5.74000000      10.00000000
O        7.17500000      10.04500000      10.00000000
Mg       5.74000000       8.61000000      10.00000000
O        7.17500000      12.91500000      10.00000000
Mg       5.74000000      11.48000000      10.00000000
O       10.04500000       1.43500000      10.00000000
Mg       8.61000000       0.00000000      10.00000000
O       10.04500000       4.30500000      10.00000000
Mg       8.61000000       2.87000000      10.00000000
O       10.04500000       7.17500000      10.00000000
Mg       8.61000000       5.74000000      10.00000000
O       10.04500000      10.04500000      10.00000000
Mg       8.61000000       8.61000000      10.00000000
O       10.04500000      12.91500000      10.00000000
Mg       8.61000000      11.48000000      10.00000000
O       12.91500000       1.43500000      10.00000000
Mg      11.48000000       0.00000000      10.00000000
O       12.91500000       4.30500000      10.00000000
Mg      11.48000000       2.87000000      10.00000000
O       12.91500000       7.17500000      10.00000000
Mg      11.48000000       5.74000000      10.00000000
O       12.91500000      10.04500000      10.00000000
Mg      11.48000000       8.61000000      10.00000000
O       12.91500000      12.91500000      10.00000000
Mg      11.48000000      11.48000000      10.00000000
Fe       1.43770848       1.44577333      12.27310347
Fe       1.27122946       4.11501299      12.28084564
Fe       1.65635003       7.32566406      12.27938565
Fe       1.43295237       9.92753383      12.27768764
Fe       1.65951229      13.14750163      12.28026824
Fe       4.09631905       1.27434444      12.28012422
Fe       4.51003435       4.51179767      12.27960257
Fe       4.30236810       7.16346115      12.27401049
Fe       4.07703770       9.81522675      12.28004254
Fe       4.31517455      13.02388432      12.27886055
Fe       7.32544929       1.62004533      12.28131635
Fe       7.16655268       4.29603384      12.27300331
Fe       6.95741269       6.92949728      12.27819814
Fe       7.30349779      10.16576775      12.28035157
Fe       6.97849082      12.76309945      12.28118268
Fe       9.92046743       1.30716008      12.27909517
Fe       9.82864930       4.52011710      12.27877129
Fe      10.15897321       7.17110510      12.27976685
Fe       9.90326562       9.82302444      12.27909024
Fe      10.20549399      13.05081344      12.28083480
Fe      13.12994147       1.61791648      12.28061252
Fe      13.03635699       4.19386813      12.28117795
Fe      12.76738324       7.38877869      12.28070954
Fe      13.10317455      10.06474286      12.27929263
Fe      12.80121572      12.72800383      12.28211277
