75
Lattice="14.350000000000001 0.0 0.0 0.0 14.350000000000001 0.0 0.0 0.0 20.0" Properties=species:S:1:pos:R:3 generator=HeteroStructRandomize uuid=ea57b0c2-8088-4da5-8385-2c1f8b4933be model_energy=-416.27256778615566 uncertainty=3.5380591293630586 acquisition_value=-423.3486860448818 time_stamp=7627.16281080246 search_iteration=16 relaxation_steps=27 relax_index=1 final=1 parent_search_iterations="_JSON []" parent_uuids="_JSON []" spawn_uuids="_JSON [\"ea57b0c2-8088-4da5-8385-2c1f8b4933be\"]" evaluator_energy="_JSON {\"16\": -417.503346699454}" iteration=16 database_id=16 pbc="T T F"
O        1.43500000       1.43500000      10.00000000
Mg       0.00000000       0.00000000      10.00000000
O        1.43500000       4.30500000      10.00000000
Mg       0.00000000       2.87000000      10.00000000
O        1.43500000       7.17500000      10.00000000
Mg       0.00000000       5.74000000      10.00000000
O        1.43500000      10.04500000      10.00000000
Mg       0.00000000       8.61000000      10.00000000
O        1.43500000      12.91500000      10.00000000
Mg       0.00000000      11.48000000      10.00000000
O        4.30500000       1.43500000      10.00000000
Mg       2.87000000       0.00000000      10.00000000
O        4.30500000       4.30500000      10.00000000
Mg       2.87000000       2.87000000      10.00000000
O        4.30500000       7.17500000      10.00000000
Mg       2.87000000       5.74000000      10.00000000
O        4.30500000      10.04500000      10.00000000
Mg       2.87000000       8.61000000      10.00000000
O        4.30500000      12.91500000      10.00000000
Mg       2.87000000      11.48000000      10.00000000
O        7.17500000       1.43500000      10.00000000
Mg       5.74000000       0.00000000      10.00000000
O        7.17500000       4.30500000      10.00000000
Mg       5.74000000       2.87000000      10.00000000
O        7.17500000       7.17500000      10.00000000
Mg       5.74000000       5.74000000      10.00000000
O        7.17500000      10.04500000      10.00000000
Mg       5.74000000       8.61000000      10.00000000
O        7.17500000      12.91500000      10.00000000
Mg       5.74000000      11.48000000      10.00000000
O       10.04500000       1.43500000      10.00000000
Mg       8.61000000       0.00000000      10.00000000
O       10.04500000       4.30500000      10.00000000
Mg       8.61000000       2.87000000      10.00000000
O       10.04500000       7.17500000      10.00000000
Mg       8.61000000       5.74000000      10.00000000
O       10.04500000      10.04500000      10.00000000
Mg       8.61000000       8.61000000      10.00000000
O       10.04500000      12.91500000      10.00000000
Mg       8.61000000      11.48000000      10.00000000
O       12.91500000       1.43500000      10.00000000
Mg      11.48000000       0.00000000      10.00000000
O       12.91500000       4.30500000      10.00000000
Mg      11.48000000       2.87000000      10.00000000
O       12.91500000       7.17500000      10.00000000
Mg      11.48000000       5.74000000      10.00000000
O       12.91500000      10.04500000      10.00000000
Mg      11.48000000       8.61000000      10.00000000
O       12.91500000      12.91500000      10.00000000
Mg      11.48000000      11.48000000      10.00000000
Fe       1.49194703       1.43137662      12.22661563
Fe       1.49719144       4.29742558      12.22572677
Fe       1.47712280       7.17230043      12.22671745
Fe       1.43004862      10.05571643      12.22599393
Fe       1.41364827      12.91222828      12.22645875
Fe       4.23838882       1.44734348      12.22542975
Fe       4.25966272       4.29264246      12.22643096
Fe       4.26799997       7.18082957      12.22655077
Fe       4.31157747      10.03040946      12.22725649
Fe       4.29362769      12.91417791      12.22777640
Fe       7.22819323       1.47206310      12.22655866
Fe       7.18670626       4.27526584      12.22717562
Fe       7.18642263       7.18553861      12.22792426
Fe       7.19057346      10.08573633      12.22632557
Fe       7.20507790      12.86704220      12.22649420
Fe      10.03007647       1.47201684      12.22510949
Fe      10.07781738       4.26215129      12.22598441
Fe      10.05957698       7.20011798      12.22651015
Fe      10.02751360      10.01447623      12.22630746
Fe      10.00399694      12.90437555      12.22728376
Fe      12.89938132       1.42941125      12.22776687
Fe      12.85943123       4.30896032      12.22685678
Fe      12.88481033       7.16949899      12.22668515
Fe      12.92683591      10.04776359      12.22709439
Fe      12.95311103      12.91417635      12.22813179
