75
Lattice="14.350000000000001 0.0 0.0 0.0 14.350000000000001 0.0 0.0 0.0 20.0" Properties=species:S:1:pos:R:3 generator=HeteroStructRandomize uuid=6af7c72d-23e1-4ea3-a5cb-c45f9036b4ed model_energy=-410.7795859962771 uncertainty=5.263827332891803 acquisition_value=-421.3072406620607 time_stamp=5396.691628694534 search_iteration=21 relaxation_steps=64 relax_index=1 final=1 parent_search_iterations="_JSON []" parent_uuids="_JSON []" spawn_uuids="_JSON [\"6af7c72d-23e1-4ea3-a5cb-c45f9036b4ed\"]" evaluator_energy="_JSON {\"21\": -412.6186433755907}" iteration=21 database_id=21 pbc="T T F"
O        1.43500000       1.43500000      10.00000000
Mg       0.00000000       0.00000000      10.00000000
O        1.43500000       4.30500000      10.00000000
Mg       0.00000000       2.87000000      10.00000000
O        1.43500000       7.17500000      10.00000000
Mg       0.00000000       5.74000000      10.00000000
O        1.43500000      10.04500000      10.00000000
Mg       0.00000000       8.61000000      10.00000000
O        1.43500000      12.91500000      10.00000000
Mg       0.00000000      11.48000000      10.00000000
O        4.30500000       1.43500000      10.00000000
Mg       2.87000000       0.00000000      10.00000000
O        4.30500000       4.30500000      10.00000000
Mg       2.87000000       2.87000000      10.00000000
O        4.30500000       7.17500000      10.00000000
Mg       2.87000000       5.74000000      10.00000000
O        4.30500000      10.04500000      10.00000000
Mg       2.87000000       8.61000000      10.00000000
O        4.30500000      12.91500000      10.00000000
Mg       2.87000000      11.48000000      10.00000000
O        7.17500000       1.43500000      10.00000000
Mg       5.74000000       0.00000000      10.00000000
O        7.17500000       4.30500000      10.00000000
Mg       5.74000000       2.87000000      10.00000000
O        7.17500000       7.17500000      10.00000000
Mg       5.74000000       5.74000000      10.00000000
O        7.17500000      10.04500000      10.00000000
Mg       5.74000000       8.61000000      10.00000000
O        7.17500000      12.91500000      10.00000000
Mg       5.74000000      11.48000000      10.00000000
O       10.04500000       1.43500000      10.00000000
Mg       8.61000000       0.00000000      10.00000000
O       10.04500000       4.30500000      10.00000000
Mg       8.61000000       2.87000000      10.00000000
O       10.04500000       7.17500000      10.00000000
Mg       8.61000000       5.74000000      10.00000000
O       10.04500000      10.04500000      10.00000000
Mg       8.61000000       8.61000000      10.00000000
O       10.04500000      12.91500000      10.00000000
Mg       8.61000000      11.48000000      10.00000000
O       12.91500000       1.43500000      10.00000000
Mg      11.48000000       0.00000000      10.00000000
O       12.91500000       4.30500000      10.00000000
Mg      11.48000000       2.87000000      10.00000000
O       12.91500000       7.17500000      10.00000000
Mg      11.48000000       5.74000000      10.00000000
O       12.91500000      10.04500000      10.00000000
Mg      11.48000000       8.61000000      10.00000000
O       12.91500000      12.91500000      10.00000000
Mg      11.48000000      11.48000000      10.00000000
Fe       1.72075576       1.71660139      12.72488953
Fe       1.10788661       4.06627162      12.71875651
Fe       1.46798698       7.57038923      12.71248287
Fe       1.21321055      10.15274869      12.73630941
Fe       1.79068504      12.60432212      12.72079326
Fe       4.22392990       1.41662885      12.73969706
Fe       4.74769751       3.80016769      12.72302875
Fe       3.96249053       7.36206935      12.72182265
Fe       4.61544411       9.69954790      12.71434511
Fe       4.24662715      13.20428098      12.72591467
Fe       6.58087879       1.99257708      12.74309951
Fe       7.01051518       4.34884410      12.73067592
Fe       7.43638445       6.79482839      12.71657805
Fe       6.98022508      10.30305502      12.72185095
Fe       6.71721425      12.70044485      12.71495846
Fe      10.22408397       1.08980451      12.72071576
Fe      10.53465048       4.66780244      12.71761056
Fe       9.85604129       6.96323619      12.73197466
Fe      10.64373184      10.56554105      12.73865395
Fe      10.21477575      12.94220635      12.73356868
Fe      12.58579370       1.64570203      12.72144053
Fe      12.91118019       4.05146627      12.72300927
Fe      13.30254795       7.53991285      12.72149576
Fe      12.99888742      10.03788170      12.73841684
Fe      12.50520826      12.38955532      12.72579449
