75
Lattice="14.350000000000001 0.0 0.0 0.0 14.350000000000001 0.0 0.0 0.0 20.0" Properties=species:S:1:pos:R:3 generator=RattleGenerator uuid=471f0286-4134-4cba-ae2c-9d16dc1f04d9 model_energy=-414.57778830172566 uncertainty=4.833927270147759 acquisition_value=-424.2456428420212 time_stamp=8922.967253446579 search_iteration=27 relaxation_steps=100 relax_index=1 final=1 parent_search_iterations="_JSON [10]" parent_uuids="_JSON [\"8ea6901f-461d-45a4-acde-1330a628eb2b\"]" spawn_uuids="_JSON [\"8ea6901f-461d-45a4-acde-1330a628eb2b\"]" evaluator_energy="_JSON {\"27\": -419.0037297515962}" iteration=27 database_id=27 pbc="T T F"
O        1.43500000       1.43500000      10.00000000
Mg       0.00000000       0.00000000      10.00000000
O        1.43500000       4.30500000      10.00000000
Mg       0.00000000       2.87000000      10.00000000
O        1.43500000       7.17500000      10.00000000
Mg       0.00000000       5.74000000      10.00000000
O        1.43500000      10.04500000      10.00000000
Mg       0.00000000       8.61000000      10.00000000
O        1.43500000      12.91500000      10.00000000
Mg       0.00000000      11.48000000      10.00000000
O        4.30500000       1.43500000      10.00000000
Mg       2.87000000       0.00000000      10.00000000
O        4.30500000       4.30500000      10.00000000
Mg       2.87000000       2.87000000      10.00000000
O        4.30500000       7.17500000      10.00000000
Mg       2.87000000       5.74000000      10.00000000
O        4.30500000      10.04500000      10.00000000
Mg       2.87000000       8.61000000      10.00000000
O        4.30500000      12.91500000      10.00000000
Mg       2.87000000      11.48000000      10.00000000
O        7.17500000       1.43500000      10.00000000
Mg       5.74000000       0.00000000      10.00000000
O        7.17500000       4.30500000      10.00000000
Mg       5.74000000       2.87000000      10.00000000
O        7.17500000       7.17500000      10.00000000
Mg       5.74000000       5.74000000      10.00000000
O        7.17500000      10.04500000      10.00000000
Mg       5.74000000       8.61000000      10.00000000
O        7.17500000      12.91500000      10.00000000
Mg       5.74000000      11.48000000      10.00000000
O       10.04500000       1.43500000      10.00000000
Mg       8.61000000       0.00000000      10.00000000
O       10.04500000       4.30500000      10.00000000
Mg       8.61000000       2.87000000      10.00000000
O       10.04500000       7.17500000      10.00000000
Mg       8.61000000       5.74000000      10.00000000
O       10.04500000      10.04500000      10.00000000
Mg       8.61000000       8.61000000      10.00000000
O       10.04500000      12.91500000      10.00000000
Mg       8.61000000      11.48000000      10.00000000
O       12.91500000       1.43500000      10.00000000
Mg      11.48000000       0.00000000      10.00000000
O       12.91500000       4.30500000      10.00000000
Mg      11.48000000       2.87000000      10.00000000
O       12.91500000       7.17500000      10.00000000
Mg      11.48000000       5.74000000      10.00000000
O       12.91500000      10.04500000      10.00000000
Mg      11.48000000       8.61000000      10.00000000
O       12.91500000      12.91500000      10.00000000
Mg      11.48000000      11.48000000      10.00000000
Fe       1.37747659       1.30995687      12.31730000
Fe       2.55093948       4.33162418      12.50035679
Fe       0.99616374       6.35215484      12.50798402
Fe      -0.38406612      10.67100444      12.79120725
Fe       0.49084571      13.07799119      12.50287040
Fe       4.17472720       2.32968153      12.50138597
Fe       5.01117451       4.63136992      12.45744819
Fe       3.43340554       6.76515177      12.50689788
Fe       4.29562934       9.07226398      12.49959032
Fe       4.88003822      11.41668838      12.69587878
Fe       6.70161917       2.75783416      12.64097001
Fe       7.39405657       5.13846963      12.48445101
Fe       5.87984521       7.14280414      12.48433231
Fe       6.66072552       9.61980851      12.29171596
Fe       7.36498992      11.87874013      12.51429995
Fe      10.70938156       0.10021379      12.74080066
Fe      10.07498517       5.30328936      12.50432319
Fe      10.84080721       7.62119250      12.49228756
Fe       9.10641304       9.91867225      12.49520970
Fe       9.98575758      12.13014707      12.49025873
Fe      13.16104603       0.61907743      12.48327213
Fe      12.75022997       5.94376637      12.50927662
Fe      13.21889463       8.25947129      12.53404435
Fe      11.56972328      10.12693020      12.50138753
Fe      12.41893245      12.62780371      12.39313171
