75
Lattice="14.350000000000001 0.0 0.0 0.0 14.350000000000001 0.0 0.0 0.0 20.0" Properties=species:S:1:pos:R:3 generator=RattleGenerator uuid=215adec1-dadd-48b2-b00d-62f2d8baaf8f model_energy=-418.2913287173747 uncertainty=1.1081391574866584 acquisition_value=-420.507607032348 time_stamp=13356.705964803696 search_iteration=32 relaxation_steps=79 relax_index=1 final=1 parent_search_iterations="_JSON [19]" parent_uuids="_JSON [\"da369938-d5f0-419a-8ce1-17472b214d1f\"]" spawn_uuids="_JSON [\"da369938-d5f0-419a-8ce1-17472b214d1f\"]" evaluator_energy="_JSON {\"32\": -419.6361664340087}" iteration=32 database_id=32 pbc="T T F"
O        1.43500000       1.43500000      10.00000000
Mg       0.00000000       0.00000000      10.00000000
O        1.43500000       4.30500000      10.00000000
Mg       0.00000000       2.87000000      10.00000000
O        1.43500000       7.17500000      10.00000000
Mg       0.00000000       5.74000000      10.00000000
O        1.43500000      10.04500000      10.00000000
Mg       0.00000000       8.61000000      10.00000000
O        1.43500000      12.91500000      10.00000000
Mg       0.00000000      11.48000000      10.00000000
O        4.30500000       1.43500000      10.00000000
Mg       2.87000000       0.00000000      10.00000000
O        4.30500000       4.30500000      10.00000000
Mg       2.87000000       2.87000000      10.00000000
O        4.30500000       7.17500000      10.00000000
Mg       2.87000000       5.74000000      10.00000000
O        4.30500000      10.04500000      10.00000000
Mg       2.87000000       8.61000000      10.00000000
O        4.30500000      12.91500000      10.00000000
Mg       2.87000000      11.48000000      10.00000000
O        7.17500000       1.43500000      10.00000000
Mg       5.74000000       0.00000000      10.00000000
O        7.17500000       4.30500000      10.00000000
Mg       5.74000000       2.87000000      10.00000000
O        7.17500000       7.17500000      10.00000000
Mg       5.74000000       5.74000000      10.00000000
O        7.17500000      10.04500000      10.00000000
Mg       5.74000000       8.61000000      10.00000000
O        7.17500000      12.91500000      10.00000000
Mg       5.74000000      11.48000000      10.00000000
O       10.04500000       1.43500000      10.00000000
Mg       8.61000000       0.00000000      10.00000000
O       10.04500000       4.30500000      10.00000000
Mg       8.61000000       2.87000000      10.00000000
O       10.04500000       7.17500000      10.00000000
Mg       8.61000000       5.74000000      10.00000000
O       10.04500000      10.04500000      10.00000000
Mg       8.61000000       8.61000000      10.00000000
O       10.04500000      12.91500000      10.00000000
Mg       8.61000000      11.48000000      10.00000000
O       12.91500000       1.43500000      10.00000000
Mg      11.48000000       0.00000000      10.00000000
O       12.91500000       4.30500000      10.00000000
Mg      11.48000000       2.87000000      10.00000000
O       12.91500000       7.17500000      10.00000000
Mg      11.48000000       5.74000000      10.00000000
O       12.91500000      10.04500000      10.00000000
Mg      11.48000000       8.61000000      10.00000000
O       12.91500000      12.91500000      10.00000000
Mg      11.48000000      11.48000000      10.00000000
Fe       1.39026294       1.46800014      12.14127902
Fe       1.32455040       4.26321831      12.14948260
Fe       1.45897799       6.80875426      12.26856131
Fe       2.87991833       8.69694973      12.96820468
Fe       1.33938663      13.29554074      12.27451582
Fe       3.88874338       1.57268558      12.30173903
Fe       3.89415979       4.18622551      12.28761734
Fe       3.93044816       6.74529911      12.32362046
Fe       4.52719859      10.42348659      12.33469935
Fe       3.95387642      12.94745529      12.29264477
Fe       7.62082273       1.50670897      12.31791982
Fe       7.62795742       4.01971950      12.33896452
Fe       8.77960573       8.53188272      12.98866394
Fe       7.30052056      10.36563452      12.26788760
Fe       7.61023371      12.80250254      12.29491637
Fe      10.13786454       1.45877260      12.14262259
Fe      10.12539941       4.19095863      12.15373115
Fe      10.26817961       6.75327653      12.28206107
Fe       9.78422445      10.47842201      12.29558275
Fe      10.03737880      12.99464561      12.15149162
Fe      12.89209147       1.48172588      12.13904299
Fe      12.96258103       4.24304635      12.14238670
Fe      12.77539537       6.78329592      12.29438670
Fe      11.30709029       8.66740248      12.98394438
Fe      13.00838045      13.33732137      12.29349639
