75
Lattice="14.350000000000001 0.0 0.0 0.0 14.350000000000001 0.0 0.0 0.0 20.0" Properties=species:S:1:pos:R:3 generator=HeteroStructRandomize uuid=3311ce51-a469-4742-a1a5-2c9fbf80d4d5 model_energy=-413.95471009603057 uncertainty=6.1192656749310785 acquisition_value=-426.19324144589274 time_stamp=5412.189934968948 search_iteration=15 relaxation_steps=100 relax_index=1 final=1 parent_search_iterations="_JSON []" parent_uuids="_JSON []" spawn_uuids="_JSON [\"3311ce51-a469-4742-a1a5-2c9fbf80d4d5\"]" evaluator_energy="_JSON {\"15\": -416.8087097478547}" iteration=15 database_id=15 pbc="T T F"
O        1.43500000       1.43500000      10.00000000
Mg       0.00000000       0.00000000      10.00000000
O        1.43500000       4.30500000      10.00000000
Mg       0.00000000       2.87000000      10.00000000
O        1.43500000       7.17500000      10.00000000
Mg       0.00000000       5.74000000      10.00000000
O        1.43500000      10.04500000      10.00000000
Mg       0.00000000       8.61000000      10.00000000
O        1.43500000      12.91500000      10.00000000
Mg       0.00000000      11.48000000      10.00000000
O        4.30500000       1.43500000      10.00000000
Mg       2.87000000       0.00000000      10.00000000
O        4.30500000       4.30500000      10.00000000
Mg       2.87000000       2.87000000      10.00000000
O        4.30500000       7.17500000      10.00000000
Mg       2.87000000       5.74000000      10.00000000
O        4.30500000      10.04500000      10.00000000
Mg       2.87000000       8.61000000      10.00000000
O        4.30500000      12.91500000      10.00000000
Mg       2.87000000      11.48000000      10.00000000
O        7.17500000       1.43500000      10.00000000
Mg       5.74000000       0.00000000      10.00000000
O        7.17500000       4.30500000      10.00000000
Mg       5.74000000       2.87000000      10.00000000
O        7.17500000       7.17500000      10.00000000
Mg       5.74000000       5.74000000      10.00000000
O        7.17500000      10.04500000      10.00000000
Mg       5.74000000       8.61000000      10.00000000
O        7.17500000      12.91500000      10.00000000
Mg       5.74000000      11.48000000      10.00000000
O       10.04500000       1.43500000      10.00000000
Mg       8.61000000       0.00000000      10.00000000
O       10.04500000       4.30500000      10.00000000
Mg       8.61000000       2.87000000      10.00000000
O       10.04500000       7.17500000      10.00000000
Mg       8.61000000       5.74000000      10.00000000
O       10.04500000      10.04500000      10.00000000
Mg       8.61000000       8.61000000      10.00000000
O       10.04500000      12.91500000      10.00000000
Mg       8.61000000      11.48000000      10.00000000
O       12.91500000       1.43500000      10.00000000
Mg      11.48000000       0.00000000      10.00000000
O       12.91500000       4.30500000      10.00000000
Mg      11.48000000       2.87000000      10.00000000
O       12.91500000       7.17500000      10.00000000
Mg      11.48000000       5.74000000      10.00000000
O       12.91500000      10.04500000      10.00000000
Mg      11.48000000       8.61000000      10.00000000
O       12.91500000      12.91500000      10.00000000
Mg      11.48000000      11.48000000      10.00000000
Fe       0.95410157       1.39344050      12.26333572
Fe       1.93452810       4.07501782      12.24903623
Fe       1.96745349       6.69599650      12.26297186
Fe       1.75565218      10.52337384      12.26858883
Fe       1.40148041      13.13225658      12.37984641
Fe       4.64797899       1.44589808      12.32729045
Fe       4.61487854       4.07859027      12.30269452
Fe       4.59886317       6.70058228      12.26826996
Fe       4.29391350      10.65197749      12.22904787
Fe       3.98263082      13.26865073      12.27806282
Fe       7.26264403       1.41156387      12.41385076
Fe       7.26653060       4.05212687      12.35546114
Fe       7.26804197       6.68110260      12.25724778
Fe       7.37368208      10.52368691      12.26449448
Fe       7.34382579      13.12059824      12.36814566
Fe       9.95442344       1.42190005      12.41853624
Fe       9.91819324       4.03581511      12.33822727
Fe       9.91368828       6.65778225      12.24328710
Fe       9.98304531      10.54888886      12.24009317
Fe       9.95322936      13.16476106      12.34563316
Fe      12.64715928       1.38123706      12.34317978
Fe      12.53083329       4.03013892      12.26641180
Fe      12.52401795       6.66790106      12.25635666
Fe      12.53878415      10.51251009      12.25628092
Fe      12.54692605      13.11922787      12.29956374
