75
Lattice="14.350000000000001 0.0 0.0 0.0 14.350000000000001 0.0 0.0 0.0 20.0" Properties=species:S:1:pos:R:3 generator=HeteroStructRandomize uuid=a295f54c-749a-4dca-b2bf-a64d3cff22cd model_energy=-404.6158276198095 uncertainty=9.460411579104212 acquisition_value=-423.53665077801793 time_stamp=6478.786445856094 search_iteration=17 relaxation_steps=39 relax_index=1 final=1 parent_search_iterations="_JSON []" parent_uuids="_JSON []" spawn_uuids="_JSON [\"a295f54c-749a-4dca-b2bf-a64d3cff22cd\"]" evaluator_energy="_JSON {\"17\": -405.76190465533267}" iteration=17 database_id=17 pbc="T T F"
O        1.43500000       1.43500000      10.00000000
Mg       0.00000000       0.00000000      10.00000000
O        1.43500000       4.30500000      10.00000000
Mg       0.00000000       2.87000000      10.00000000
O        1.43500000       7.17500000      10.00000000
Mg       0.00000000       5.74000000      10.00000000
O        1.43500000      10.04500000      10.00000000
Mg       0.00000000       8.61000000      10.00000000
O        1.43500000      12.91500000      10.00000000
Mg       0.00000000      11.48000000      10.00000000
O        4.30500000       1.43500000      10.00000000
Mg       2.87000000       0.00000000      10.00000000
O        4.30500000       4.30500000      10.00000000
Mg       2.87000000       2.87000000      10.00000000
O        4.30500000       7.17500000      10.00000000
Mg       2.87000000       5.74000000      10.00000000
O        4.30500000      10.04500000      10.00000000
Mg       2.87000000       8.61000000      10.00000000
O        4.30500000      12.91500000      10.00000000
Mg       2.87000000      11.48000000      10.00000000
O        7.17500000       1.43500000      10.00000000
Mg       5.74000000       0.00000000      10.00000000
O        7.17500000       4.30500000      10.00000000
Mg       5.74000000       2.87000000      10.00000000
O        7.17500000       7.17500000      10.00000000
Mg       5.74000000       5.74000000      10.00000000
O        7.17500000      10.04500000      10.00000000
Mg       5.74000000       8.61000000      10.00000000
O        7.17500000      12.91500000      10.00000000
Mg       5.74000000      11.48000000      10.00000000
O       10.04500000       1.43500000      10.00000000
Mg       8.61000000       0.00000000      10.00000000
O       10.04500000       4.30500000      10.00000000
Mg       8.61000000       2.87000000      10.00000000
O       10.04500000       7.17500000      10.00000000
Mg       8.61000000       5.74000000      10.00000000
O       10.04500000      10.04500000      10.00000000
Mg       8.61000000       8.61000000      10.00000000
O       10.04500000      12.91500000      10.00000000
Mg       8.61000000      11.48000000      10.00000000
O       12.91500000       1.43500000      10.00000000
Mg      11.48000000       0.00000000      10.00000000
O       12.91500000       4.30500000      10.00000000
Mg      11.48000000       2.87000000      10.00000000
O       12.91500000       7.17500000      10.00000000
Mg      11.48000000       5.74000000      10.00000000
O       12.91500000      10.04500000      10.00000000
Mg      11.48000000       8.61000000      10.00000000
O       12.91500000      12.91500000      10.00000000
Mg      11.48000000      11.48000000      10.00000000
Fe       1.43563608       1.43004656      12.93965057
Fe       1.43152738       4.30027105      12.94370852
Fe       1.44190273       7.17832380      12.95517246
Fe       1.43732178      10.04971451      12.94511104
Fe       1.43278988      12.92196087      12.94684327
Fe       4.31579690       1.43698893      12.94349445
Fe       4.31082492       4.30933788      12.94606062
Fe       4.30431165       7.17408974      12.94651124
Fe       4.30104656      10.05322418      12.94503619
Fe       4.30624650      12.91969593      12.94797836
Fe       7.17160898       1.43105715      12.94305870
Fe       7.17621363       4.30229305      12.94932772
Fe       7.16532900       7.16895289      12.94596912
Fe       7.17371336      10.04077255      12.94877573
Fe       7.18169165      12.91555433      12.95516868
Fe      10.04129103       1.44016224      12.94853010
Fe      10.04312925       4.30086380      12.94518669
Fe      10.05033739       7.17044003      12.94963898
Fe      10.04523126      10.03788219      12.95494358
Fe      10.04619213      12.90828909      12.95300839
Fe      12.91690517       1.43138621      12.93910474
Fe      12.91472032       4.30089293      12.94296254
Fe      12.90972316       7.16986729      12.95348891
Fe      12.92166005      10.04025533      12.94826946
Fe      12.91137172      12.90928298      12.94964611
