75
Lattice="14.350000000000001 0.0 0.0 0.0 14.350000000000001 0.0 0.0 0.0 20.0" Properties=species:S:1:pos:R:3 generator=RattleGenerator uuid=32a62f53-5017-4b66-b53c-cd541aba3731 model_energy=-433.5883001872196 uncertainty=0.2841662909459099 acquisition_value=-434.1566327691114 time_stamp=22426.496099710464 search_iteration=73 relaxation_steps=100 relax_index=1 final=1 parent_search_iterations="_JSON [72]" parent_uuids="_JSON [\"11f39176-d769-4a76-ab77-eb92fb2d9382\"]" spawn_uuids="_JSON [\"76116309-dd68-45dc-8e90-75c1be0fff3d\"]" evaluator_energy="_JSON {\"73\": -432.48483238540217}" iteration=73 database_id=73 pbc="T T F"
O        1.43500000       1.43500000      10.00000000
Mg       0.00000000       0.00000000      10.00000000
O        1.43500000       4.30500000      10.00000000
Mg       0.00000000       2.87000000      10.00000000
O        1.43500000       7.17500000      10.00000000
Mg       0.00000000       5.74000000      10.00000000
O        1.43500000      10.04500000      10.00000000
Mg       0.00000000       8.61000000      10.00000000
O        1.43500000      12.91500000      10.00000000
Mg       0.00000000      11.48000000      10.00000000
O        4.30500000       1.43500000      10.00000000
Mg       2.87000000       0.00000000      10.00000000
O        4.30500000       4.30500000      10.00000000
Mg       2.87000000       2.87000000      10.00000000
O        4.30500000       7.17500000      10.00000000
Mg       2.87000000       5.74000000      10.00000000
O        4.30500000      10.04500000      10.00000000
Mg       2.87000000       8.61000000      10.00000000
O        4.30500000      12.91500000      10.00000000
Mg       2.87000000      11.48000000      10.00000000
O        7.17500000       1.43500000      10.00000000
Mg       5.74000000       0.00000000      10.00000000
O        7.17500000       4.30500000      10.00000000
Mg       5.74000000       2.87000000      10.00000000
O        7.17500000       7.17500000      10.00000000
Mg       5.74000000       5.74000000      10.00000000
O        7.17500000      10.04500000      10.00000000
Mg       5.74000000       8.61000000      10.00000000
O        7.17500000      12.91500000      10.00000000
Mg       5.74000000      11.48000000      10.00000000
O       10.04500000       1.43500000      10.00000000
Mg       8.61000000       0.00000000      10.00000000
O       10.04500000       4.30500000      10.00000000
Mg       8.61000000       2.87000000      10.00000000
O       10.04500000       7.17500000      10.00000000
Mg       8.61000000       5.74000000      10.00000000
O       10.04500000      10.04500000      10.00000000
Mg       8.61000000       8.61000000      10.00000000
O       10.04500000      12.91500000      10.00000000
Mg       8.61000000      11.48000000      10.00000000
O       12.91500000       1.43500000      10.00000000
Mg      11.48000000       0.00000000      10.00000000
O       12.91500000       4.30500000      10.00000000
Mg      11.48000000       2.87000000      10.00000000
O       12.91500000       7.17500000      10.00000000
Mg      11.48000000       5.74000000      10.00000000
O       12.91500000      10.04500000      10.00000000
Mg      11.48000000       8.61000000      10.00000000
O       12.91500000      12.91500000      10.00000000
Mg      11.48000000      11.48000000      10.00000000
Fe       2.60642544       8.83400744      14.11529836
Fe       2.04937925       7.36628938      12.26628286
Fe       4.36062711       5.02429307      12.31233598
Fe       1.46812591       9.88591094      12.07063581
Fe       0.89660697      12.25880656      12.46641880
Fe       3.28076266       6.33807275      14.14368759
Fe       5.85731439       5.97524943      13.99319412
Fe       4.46420623       7.30787266      12.17349188
Fe       3.93903078       9.68223922      12.27093353
Fe       2.63227383      11.30427480      13.69298715
Fe       4.73160885      -3.87819968      14.39223051
Fe       7.06912185       7.09906431      12.14235136
Fe       7.47682127       7.86573647      14.45942019
Fe       4.99997243       8.14109752      14.47228720
Fe       8.42776363       9.60516186      13.01831661
Fe       6.82682043       4.61898139      12.29440824
Fe      11.98876604       8.34508884      13.60323959
Fe       8.46028397       5.80757642      13.69037132
Fe       6.18080373       9.27574900      12.76067754
Fe       9.70357636       7.51676182      12.43886577
Fe      14.57534941      -4.07598350      13.88605900
Fe      14.26118959       8.00928235      13.04085774
Fe       9.80673245       8.39444755      14.62075876
Fe      10.59518211       9.77913148      12.37299419
Fe      13.02844608      10.06420493      12.13652278
