75
Lattice="14.350000000000001 0.0 0.0 0.0 14.350000000000001 0.0 0.0 0.0 20.0" Properties=species:S:1:pos:R:3 generator=RattleGenerator uuid=36d10e16-b317-4ca7-ba2d-2d6f67543950 model_energy=-418.417315106829 uncertainty=1.1012448585356758 acquisition_value=-420.6198048239003 time_stamp=13565.044917583466 search_iteration=33 relaxation_steps=93 relax_index=1 final=1 parent_search_iterations="_JSON [19]" parent_uuids="_JSON [\"da369938-d5f0-419a-8ce1-17472b214d1f\"]" spawn_uuids="_JSON [\"da369938-d5f0-419a-8ce1-17472b214d1f\"]" evaluator_energy="_JSON {\"33\": -419.40751028810405}" iteration=33 database_id=33 pbc="T T F"
O        1.43500000       1.43500000      10.00000000
Mg       0.00000000       0.00000000      10.00000000
O        1.43500000       4.30500000      10.00000000
Mg       0.00000000       2.87000000      10.00000000
O        1.43500000       7.17500000      10.00000000
Mg       0.00000000       5.74000000      10.00000000
O        1.43500000      10.04500000      10.00000000
Mg       0.00000000       8.61000000      10.00000000
O        1.43500000      12.91500000      10.00000000
Mg       0.00000000      11.48000000      10.00000000
O        4.30500000       1.43500000      10.00000000
Mg       2.87000000       0.00000000      10.00000000
O        4.30500000       4.30500000      10.00000000
Mg       2.87000000       2.87000000      10.00000000
O        4.30500000       7.17500000      10.00000000
Mg       2.87000000       5.74000000      10.00000000
O        4.30500000      10.04500000      10.00000000
Mg       2.87000000       8.61000000      10.00000000
O        4.30500000      12.91500000      10.00000000
Mg       2.87000000      11.48000000      10.00000000
O        7.17500000       1.43500000      10.00000000
Mg       5.74000000       0.00000000      10.00000000
O        7.17500000       4.30500000      10.00000000
Mg       5.74000000       2.87000000      10.00000000
O        7.17500000       7.17500000      10.00000000
Mg       5.74000000       5.74000000      10.00000000
O        7.17500000      10.04500000      10.00000000
Mg       5.74000000       8.61000000      10.00000000
O        7.17500000      12.91500000      10.00000000
Mg       5.74000000      11.48000000      10.00000000
O       10.04500000       1.43500000      10.00000000
Mg       8.61000000       0.00000000      10.00000000
O       10.04500000       4.30500000      10.00000000
Mg       8.61000000       2.87000000      10.00000000
O       10.04500000       7.17500000      10.00000000
Mg       8.61000000       5.74000000      10.00000000
O       10.04500000      10.04500000      10.00000000
Mg       8.61000000       8.61000000      10.00000000
O       10.04500000      12.91500000      10.00000000
Mg       8.61000000      11.48000000      10.00000000
O       12.91500000       1.43500000      10.00000000
Mg      11.48000000       0.00000000      10.00000000
O       12.91500000       4.30500000      10.00000000
Mg      11.48000000       2.87000000      10.00000000
O       12.91500000       7.17500000      10.00000000
Mg      11.48000000       5.74000000      10.00000000
O       12.91500000      10.04500000      10.00000000
Mg      11.48000000       8.61000000      10.00000000
O       12.91500000      12.91500000      10.00000000
Mg      11.48000000      11.48000000      10.00000000
Fe       0.92074489       0.90937428      12.46960597
Fe       0.95542651       4.74231798      12.44870211
Fe       1.26195667       7.26916305      12.16535955
Fe       1.51481360       9.92483013      12.15185865
Fe       1.45640928      12.88708213      12.15401458
Fe       4.75827684       0.98256017      12.44927783
Fe       4.84857857       4.80017522      12.46542394
Fe       4.29884003       7.18980513      12.15517665
Fe       4.24726207      10.16252673      12.14824334
Fe       4.41861930      12.83061027      12.15108834
Fe       7.22477785       1.51526891      12.15982501
Fe       7.24512841       4.21750310      12.14929404
Fe       6.66715347       6.60922363      12.46971228
Fe       7.20351179      10.34230299      12.20827807
Fe       7.06726228      12.83916735      12.14639418
Fe       9.80047712       1.88207619      12.38064476
Fe      10.01899129       4.29287182      12.14147865
Fe      10.42451152       7.33479705      12.35787083
Fe       9.62829461       9.93630256      12.34742267
Fe       9.49987916      12.44576112      12.47456620
Fe      12.93137085       1.49710053      12.15713482
Fe      12.85695173       4.42442451      12.15477287
Fe      13.00632218       7.11632833      12.15245629
Fe      13.41893566       9.61620188      12.44462020
Fe      13.43702710      13.48362157      12.47678324
