75
Lattice="14.350000000000001 0.0 0.0 0.0 14.350000000000001 0.0 0.0 0.0 20.0" Properties=species:S:1:pos:R:3 generator=HeteroStructRandomize uuid=b67efbc2-2f03-430e-8a70-1e7a1a97c66d model_energy=-415.1622050559359 uncertainty=4.4155866313706325 acquisition_value=-423.9933783186772 time_stamp=6811.481424808502 search_iteration=18 relaxation_steps=67 relax_index=1 final=1 parent_search_iterations="_JSON []" parent_uuids="_JSON []" spawn_uuids="_JSON [\"b67efbc2-2f03-430e-8a70-1e7a1a97c66d\"]" evaluator_energy="_JSON {\"18\": -414.20631730756224}" iteration=18 database_id=18 pbc="T T F"
O        1.43500000       1.43500000      10.00000000
Mg       0.00000000       0.00000000      10.00000000
O        1.43500000       4.30500000      10.00000000
Mg       0.00000000       2.87000000      10.00000000
O        1.43500000       7.17500000      10.00000000
Mg       0.00000000       5.74000000      10.00000000
O        1.43500000      10.04500000      10.00000000
Mg       0.00000000       8.61000000      10.00000000
O        1.43500000      12.91500000      10.00000000
Mg       0.00000000      11.48000000      10.00000000
O        4.30500000       1.43500000      10.00000000
Mg       2.87000000       0.00000000      10.00000000
O        4.30500000       4.30500000      10.00000000
Mg       2.87000000       2.87000000      10.00000000
O        4.30500000       7.17500000      10.00000000
Mg       2.87000000       5.74000000      10.00000000
O        4.30500000      10.04500000      10.00000000
Mg       2.87000000       8.61000000      10.00000000
O        4.30500000      12.91500000      10.00000000
Mg       2.87000000      11.48000000      10.00000000
O        7.17500000       1.43500000      10.00000000
Mg       5.74000000       0.00000000      10.00000000
O        7.17500000       4.30500000      10.00000000
Mg       5.74000000       2.87000000      10.00000000
O        7.17500000       7.17500000      10.00000000
Mg       5.74000000       5.74000000      10.00000000
O        7.17500000      10.04500000      10.00000000
Mg       5.74000000       8.61000000      10.00000000
O        7.17500000      12.91500000      10.00000000
Mg       5.74000000      11.48000000      10.00000000
O       10.04500000       1.43500000      10.00000000
Mg       8.61000000       0.00000000      10.00000000
O       10.04500000       4.30500000      10.00000000
Mg       8.61000000       2.87000000      10.00000000
O       10.04500000       7.17500000      10.00000000
Mg       8.61000000       5.74000000      10.00000000
O       10.04500000      10.04500000      10.00000000
Mg       8.61000000       8.61000000      10.00000000
O       10.04500000      12.91500000      10.00000000
Mg       8.61000000      11.48000000      10.00000000
O       12.91500000       1.43500000      10.00000000
Mg      11.48000000       0.00000000      10.00000000
O       12.91500000       4.30500000      10.00000000
Mg      11.48000000       2.87000000      10.00000000
O       12.91500000       7.17500000      10.00000000
Mg      11.48000000       5.74000000      10.00000000
O       12.91500000      10.04500000      10.00000000
Mg      11.48000000       8.61000000      10.00000000
O       12.91500000      12.91500000      10.00000000
Mg      11.48000000      11.48000000      10.00000000
Fe       1.10945247       1.36355494      12.23277685
Fe       1.74774763       4.09541324      12.22593975
Fe       1.10721597       7.02258143      12.23229712
Fe       1.74416876       9.79792778      12.22753138
Fe       1.47976592      12.72732891      12.23535524
Fe       4.01365806       1.74332843      12.22846832
Fe       4.60532478       4.60377682      12.23141313
Fe       4.00541141       7.47287231      12.22922161
Fe       4.58911886      10.32839862      12.22430271
Fe       4.42728885      13.22893178      12.23156222
Fe       6.87554019       1.13821657      12.22790991
Fe       7.47065234       3.99848518      12.22463904
Fe       6.87644883       6.87790413      12.22927845
Fe       7.47453225       9.74221599      12.22426165
Fe       7.16821954      12.58456886      12.23723759
Fe       9.72917928       1.72971009      12.22974107
Fe      10.34657572       4.58739878      12.22802188
Fe       9.74890249       7.46218978      12.23507962
Fe      10.32498374      10.34438563      12.22827682
Fe      10.12945406      13.22776896      12.23422223
Fe      12.59854935       1.16668336      12.23596953
Fe      13.23638026       4.04244331      12.23330277
Fe      12.61139426       6.86981852      12.22609726
Fe      13.17728568       9.73063124      12.22685029
Fe      12.84263194      12.56828883      12.23543657
