75
Lattice="14.350000000000001 0.0 0.0 0.0 14.350000000000001 0.0 0.0 0.0 20.0" Properties=species:S:1:pos:R:3 generator=HeteroStructRandomize uuid=84018677-72f2-4437-8e56-cea33fdab824 model_energy=-416.7843037705896 uncertainty=2.419413211320171 acquisition_value=-421.62313019322994 time_stamp=7907.93617939949 search_iteration=23 relaxation_steps=50 relax_index=1 final=1 parent_search_iterations="_JSON []" parent_uuids="_JSON []" spawn_uuids="_JSON [\"84018677-72f2-4437-8e56-cea33fdab824\"]" evaluator_energy="_JSON {\"23\": -417.8081477887842}" iteration=23 database_id=23 pbc="T T F"
O        1.43500000       1.43500000      10.00000000
Mg       0.00000000       0.00000000      10.00000000
O        1.43500000       4.30500000      10.00000000
Mg       0.00000000       2.87000000      10.00000000
O        1.43500000       7.17500000      10.00000000
Mg       0.00000000       5.74000000      10.00000000
O        1.43500000      10.04500000      10.00000000
Mg       0.00000000       8.61000000      10.00000000
O        1.43500000      12.91500000      10.00000000
Mg       0.00000000      11.48000000      10.00000000
O        4.30500000       1.43500000      10.00000000
Mg       2.87000000       0.00000000      10.00000000
O        4.30500000       4.30500000      10.00000000
Mg       2.87000000       2.87000000      10.00000000
O        4.30500000       7.17500000      10.00000000
Mg       2.87000000       5.74000000      10.00000000
O        4.30500000      10.04500000      10.00000000
Mg       2.87000000       8.61000000      10.00000000
O        4.30500000      12.91500000      10.00000000
Mg       2.87000000      11.48000000      10.00000000
O        7.17500000       1.43500000      10.00000000
Mg       5.74000000       0.00000000      10.00000000
O        7.17500000       4.30500000      10.00000000
Mg       5.74000000       2.87000000      10.00000000
O        7.17500000       7.17500000      10.00000000
Mg       5.74000000       5.74000000      10.00000000
O        7.17500000      10.04500000      10.00000000
Mg       5.74000000       8.61000000      10.00000000
O        7.17500000      12.91500000      10.00000000
Mg       5.74000000      11.48000000      10.00000000
O       10.04500000       1.43500000      10.00000000
Mg       8.61000000       0.00000000      10.00000000
O       10.04500000       4.30500000      10.00000000
Mg       8.61000000       2.87000000      10.00000000
O       10.04500000       7.17500000      10.00000000
Mg       8.61000000       5.74000000      10.00000000
O       10.04500000      10.04500000      10.00000000
Mg       8.61000000       8.61000000      10.00000000
O       10.04500000      12.91500000      10.00000000
Mg       8.61000000      11.48000000      10.00000000
O       12.91500000       1.43500000      10.00000000
Mg      11.48000000       0.00000000      10.00000000
O       12.91500000       4.30500000      10.00000000
Mg      11.48000000       2.87000000      10.00000000
O       12.91500000       7.17500000      10.00000000
Mg      11.48000000       5.74000000      10.00000000
O       12.91500000      10.04500000      10.00000000
Mg      11.48000000       8.61000000      10.00000000
O       12.91500000      12.91500000      10.00000000
Mg      11.48000000      11.48000000      10.00000000
Fe       1.79426151       1.27499050      12.35891715
Fe       1.08931880       4.53670614      12.35745558
Fe       1.09938221       7.12140807      12.35501917
Fe       1.08404573       9.79675987      12.35764108
Fe       1.76758649      13.15249540      12.35454170
Fe       4.33139330       1.34892286      12.32613896
Fe       4.47159997       3.95548675      12.35955377
Fe       4.52007922       7.31557844      12.34596075
Fe       4.51459583       9.80781859      12.34956705
Fe       4.31396184      13.19699105      12.34474842
Fe       6.87112106       1.26978966      12.35390713
Fe       6.91317103       4.61446382      12.35256548
Fe       6.96138628       7.21116448      12.34142103
Fe       6.96495219       9.76077216      12.35178440
Fe       6.87685073      13.14163963      12.35390616
Fe      10.29185799       1.76290748      12.35506868
Fe      10.34453735       4.32348369      12.34812347
Fe      10.34789053       6.87270370      12.35502212
Fe      10.32429246      10.24726217      12.35011038
Fe      10.27846315      12.69760751      12.34866359
Fe      12.76988401       1.78833324      12.35924017
Fe      12.87609143       4.35798970      12.32601535
Fe      12.90553647       6.89428884      12.34722255
Fe      12.87351175      10.24065168      12.33720364
Fe      12.75412501      12.70028699      12.34761015
