75
Lattice="14.350000000000001 0.0 0.0 0.0 14.350000000000001 0.0 0.0 0.0 20.0" Properties=species:S:1:pos:R:3 generator=RattleGenerator uuid=d3b7c752-656a-44d8-9a2a-4da77e35d194 model_energy=-422.47495208481973 uncertainty=0.82158939494859 acquisition_value=-424.11813087471694 time_stamp=18281.237684965134 search_iteration=46 relaxation_steps=100 relax_index=1 final=1 parent_search_iterations="_JSON [16]" parent_uuids="_JSON [\"ea57b0c2-8088-4da5-8385-2c1f8b4933be\"]" spawn_uuids="_JSON [\"ea57b0c2-8088-4da5-8385-2c1f8b4933be\"]" evaluator_energy="_JSON {\"46\": -422.174483586863}" iteration=46 database_id=46 pbc="T T F"
O        1.43500000       1.43500000      10.00000000
Mg       0.00000000       0.00000000      10.00000000
O        1.43500000       4.30500000      10.00000000
Mg       0.00000000       2.87000000      10.00000000
O        1.43500000       7.17500000      10.00000000
Mg       0.00000000       5.74000000      10.00000000
O        1.43500000      10.04500000      10.00000000
Mg       0.00000000       8.61000000      10.00000000
O        1.43500000      12.91500000      10.00000000
Mg       0.00000000      11.48000000      10.00000000
O        4.30500000       1.43500000      10.00000000
Mg       2.87000000       0.00000000      10.00000000
O        4.30500000       4.30500000      10.00000000
Mg       2.87000000       2.87000000      10.00000000
O        4.30500000       7.17500000      10.00000000
Mg       2.87000000       5.74000000      10.00000000
O        4.30500000      10.04500000      10.00000000
Mg       2.87000000       8.61000000      10.00000000
O        4.30500000      12.91500000      10.00000000
Mg       2.87000000      11.48000000      10.00000000
O        7.17500000       1.43500000      10.00000000
Mg       5.74000000       0.00000000      10.00000000
O        7.17500000       4.30500000      10.00000000
Mg       5.74000000       2.87000000      10.00000000
O        7.17500000       7.17500000      10.00000000
Mg       5.74000000       5.74000000      10.00000000
O        7.17500000      10.04500000      10.00000000
Mg       5.74000000       8.61000000      10.00000000
O        7.17500000      12.91500000      10.00000000
Mg       5.74000000      11.48000000      10.00000000
O       10.04500000       1.43500000      10.00000000
Mg       8.61000000       0.00000000      10.00000000
O       10.04500000       4.30500000      10.00000000
Mg       8.61000000       2.87000000      10.00000000
O       10.04500000       7.17500000      10.00000000
Mg       8.61000000       5.74000000      10.00000000
O       10.04500000      10.04500000      10.00000000
Mg       8.61000000       8.61000000      10.00000000
O       10.04500000      12.91500000      10.00000000
Mg       8.61000000      11.48000000      10.00000000
O       12.91500000       1.43500000      10.00000000
Mg      11.48000000       0.00000000      10.00000000
O       12.91500000       4.30500000      10.00000000
Mg      11.48000000       2.87000000      10.00000000
O       12.91500000       7.17500000      10.00000000
Mg      11.48000000       5.74000000      10.00000000
O       12.91500000      10.04500000      10.00000000
Mg      11.48000000       8.61000000      10.00000000
O       12.91500000      12.91500000      10.00000000
Mg      11.48000000      11.48000000      10.00000000
Fe       1.38971834       1.77864289      12.27360267
Fe       1.86545723       4.19589293      12.24182568
Fe       0.55402475       6.18546150      12.80071310
Fe      -0.16570655      11.48345247      13.32216410
Fe       0.60330251      13.75316312      12.73588347
Fe       4.34351737       1.63581518      12.15961812
Fe       4.33570080       4.07753164      12.14289698
Fe       5.09731004       6.25211787      12.74498085
Fe       5.87900535       8.42279235      13.40510682
Fe       5.16859746      13.79438945      12.75015408
Fe       6.82757601       1.28451792      12.28645089
Fe       6.79738311       4.43037135      12.27476518
Fe       7.41469751       6.89504311      12.27929311
Fe       8.02641355       9.23585127      12.73036049
Fe       7.51748354      13.23416464      12.29966139
Fe       9.19111691       0.62393644      12.73298166
Fe       9.08775955       5.17784439      12.76595413
Fe       9.84409277       7.54026952      12.28132685
Fe      10.17440104      10.10449057      12.13253537
Fe      10.03217100      12.72578696      12.16842996
Fe      13.34943389       1.23641064      12.34402082
Fe      14.00680613       3.64097878      12.75875060
Fe      12.82257740       7.41823511      12.21865899
Fe      12.60712171       9.98018344      12.22111073
Fe      12.66154769      12.98264046      12.21537741
