75
Lattice="14.350000000000001 0.0 0.0 0.0 14.350000000000001 0.0 0.0 0.0 20.0" Properties=species:S:1:pos:R:3 generator=HeteroStructRandomize uuid=190fce8d-6d6a-4213-ae45-00e921789812 model_energy=-408.0209210997566 uncertainty=10.117651005601596 acquisition_value=-428.2562231109598 time_stamp=3036.0897574424744 search_iteration=12 relaxation_steps=25 relax_index=1 final=1 parent_search_iterations="_JSON []" parent_uuids="_JSON []" spawn_uuids="_JSON [\"190fce8d-6d6a-4213-ae45-00e921789812\"]" evaluator_energy="_JSON {\"12\": -416.3161381789869}" iteration=12 database_id=12 pbc="T T F"
O        1.43500000       1.43500000      10.00000000
Mg       0.00000000       0.00000000      10.00000000
O        1.43500000       4.30500000      10.00000000
Mg       0.00000000       2.87000000      10.00000000
O        1.43500000       7.17500000      10.00000000
Mg       0.00000000       5.74000000      10.00000000
O        1.43500000      10.04500000      10.00000000
Mg       0.00000000       8.61000000      10.00000000
O        1.43500000      12.91500000      10.00000000
Mg       0.00000000      11.48000000      10.00000000
O        4.30500000       1.43500000      10.00000000
Mg       2.87000000       0.00000000      10.00000000
O        4.30500000       4.30500000      10.00000000
Mg       2.87000000       2.87000000      10.00000000
O        4.30500000       7.17500000      10.00000000
Mg       2.87000000       5.74000000      10.00000000
O        4.30500000      10.04500000      10.00000000
Mg       2.87000000       8.61000000      10.00000000
O        4.30500000      12.91500000      10.00000000
Mg       2.87000000      11.48000000      10.00000000
O        7.17500000       1.43500000      10.00000000
Mg       5.74000000       0.00000000      10.00000000
O        7.17500000       4.30500000      10.00000000
Mg       5.74000000       2.87000000      10.00000000
O        7.17500000       7.17500000      10.00000000
Mg       5.74000000       5.74000000      10.00000000
O        7.17500000      10.04500000      10.00000000
Mg       5.74000000       8.61000000      10.00000000
O        7.17500000      12.91500000      10.00000000
Mg       5.74000000      11.48000000      10.00000000
O       10.04500000       1.43500000      10.00000000
Mg       8.61000000       0.00000000      10.00000000
O       10.04500000       4.30500000      10.00000000
Mg       8.61000000       2.87000000      10.00000000
O       10.04500000       7.17500000      10.00000000
Mg       8.61000000       5.74000000      10.00000000
O       10.04500000      10.04500000      10.00000000
Mg       8.61000000       8.61000000      10.00000000
O       10.04500000      12.91500000      10.00000000
Mg       8.61000000      11.48000000      10.00000000
O       12.91500000       1.43500000      10.00000000
Mg      11.48000000       0.00000000      10.00000000
O       12.91500000       4.30500000      10.00000000
Mg      11.48000000       2.87000000      10.00000000
O       12.91500000       7.17500000      10.00000000
Mg      11.48000000       5.74000000      10.00000000
O       12.91500000      10.04500000      10.00000000
Mg      11.48000000       8.61000000      10.00000000
O       12.91500000      12.91500000      10.00000000
Mg      11.48000000      11.48000000      10.00000000
Fe       1.43398485       1.43326076      12.34286763
Fe       1.43225756       4.30796401      12.32765967
Fe       1.43919800       7.18047298      12.33737246
Fe       1.43464092      10.04606215      12.34838401
Fe       1.44416803      12.91817228      12.33645251
Fe       4.30537095       1.43229763      12.34417728
Fe       4.30578274       4.30621017      12.33947208
Fe       4.31622357       7.17379425      12.34957547
Fe       4.30442910      10.05067887      12.34006147
Fe       4.29971540      12.90644220      12.30692601
Fe       7.18190789       1.43198936      12.34033432
Fe       7.17756262       4.30446350      12.33944642
Fe       7.17511444       7.16746149      12.33922833
Fe       7.17534839      10.04789460      12.34215919
Fe       7.16802774      12.92354710      12.33927561
Fe      10.03163978       1.43661851      12.33962537
Fe      10.04902783       4.30549114      12.33545458
Fe      10.03716075       7.17980568      12.31570496
Fe      10.05071075      10.03439108      12.34450106
Fe      10.04699992      12.91004021      12.33596967
Fe      12.91611356       1.42904020      12.34665448
Fe      12.91768719       4.30461548      12.34825579
Fe      12.90863084       7.17704234      12.33946604
Fe      12.90939065      10.04777589      12.34112483
Fe      12.90923182      12.92194056      12.34449295
