75
Lattice="14.350000000000001 0.0 0.0 0.0 14.350000000000001 0.0 0.0 0.0 20.0" Properties=species:S:1:pos:R:3 generator=RattleGenerator uuid=24dff6c2-8bd6-4284-af49-0eb293a8001c model_energy=-427.75328328430766 uncertainty=0.9222239666274069 acquisition_value=-429.59773121756245 time_stamp=16558.8711810112 search_iteration=48 relaxation_steps=100 relax_index=1 final=1 parent_search_iterations="_JSON [46]" parent_uuids="_JSON [\"4c8b98db-e440-4f20-8723-8ccf413713c8\"]" spawn_uuids="_JSON [\"ff0ad4c6-972f-486e-a3f8-19d1767f5664\"]" evaluator_energy="_JSON {\"48\": -428.6707894726242}" iteration=48 database_id=48 pbc="T T F"
O        1.43500000       1.43500000      10.00000000
Mg       0.00000000       0.00000000      10.00000000
O        1.43500000       4.30500000      10.00000000
Mg       0.00000000       2.87000000      10.00000000
O        1.43500000       7.17500000      10.00000000
Mg       0.00000000       5.74000000      10.00000000
O        1.43500000      10.04500000      10.00000000
Mg       0.00000000       8.61000000      10.00000000
O        1.43500000      12.91500000      10.00000000
Mg       0.00000000      11.48000000      10.00000000
O        4.30500000       1.43500000      10.00000000
Mg       2.87000000       0.00000000      10.00000000
O        4.30500000       4.30500000      10.00000000
Mg       2.87000000       2.87000000      10.00000000
O        4.30500000       7.17500000      10.00000000
Mg       2.87000000       5.74000000      10.00000000
O        4.30500000      10.04500000      10.00000000
Mg       2.87000000       8.61000000      10.00000000
O        4.30500000      12.91500000      10.00000000
Mg       2.87000000      11.48000000      10.00000000
O        7.17500000       1.43500000      10.00000000
Mg       5.74000000       0.00000000      10.00000000
O        7.17500000       4.30500000      10.00000000
Mg       5.74000000       2.87000000      10.00000000
O        7.17500000       7.17500000      10.00000000
Mg       5.74000000       5.74000000      10.00000000
O        7.17500000      10.04500000      10.00000000
Mg       5.74000000       8.61000000      10.00000000
O        7.17500000      12.91500000      10.00000000
Mg       5.74000000      11.48000000      10.00000000
O       10.04500000       1.43500000      10.00000000
Mg       8.61000000       0.00000000      10.00000000
O       10.04500000       4.30500000      10.00000000
Mg       8.61000000       2.87000000      10.00000000
O       10.04500000       7.17500000      10.00000000
Mg       8.61000000       5.74000000      10.00000000
O       10.04500000      10.04500000      10.00000000
Mg       8.61000000       8.61000000      10.00000000
O       10.04500000      12.91500000      10.00000000
Mg       8.61000000      11.48000000      10.00000000
O       12.91500000       1.43500000      10.00000000
Mg      11.48000000       0.00000000      10.00000000
O       12.91500000       4.30500000      10.00000000
Mg      11.48000000       2.87000000      10.00000000
O       12.91500000       7.17500000      10.00000000
Mg      11.48000000       5.74000000      10.00000000
O       12.91500000      10.04500000      10.00000000
Mg      11.48000000       8.61000000      10.00000000
O       12.91500000      12.91500000      10.00000000
Mg      11.48000000      11.48000000      10.00000000
Fe       1.33768516       1.58141816      12.25788460
Fe      -0.04987944       2.93711838      13.83617184
Fe      -0.11135343       5.40000765      14.02236955
Fe       0.59651113       6.65878158      12.26759266
Fe       1.94519931      13.55474195      12.70216661
Fe       3.70502050       0.91184683      12.70595482
Fe       1.23092658       4.23500928      12.23255498
Fe       6.09842717       8.64142374      13.83123807
Fe       4.95900596      10.56064323      12.71877633
Fe       4.30318335      12.91624088      12.23902273
Fe       8.56168942       5.95412613      13.71271437
Fe       7.40360617       7.41172905      12.18159948
Fe       8.68501736       8.56103382      13.88225995
Fe       7.30912747       9.93424041      12.20860788
Fe       6.68077970      12.28490642      12.70944420
Fe      12.11680215       4.40719147      14.46698384
Fe      10.60737489       4.89616686      12.64407909
Fe       9.97961773       7.26258742      12.21040121
Fe       9.84052782       9.83298818      12.18855185
Fe       8.61209074      11.16049358      13.81871470
Fe      13.10829290       1.66089120      12.22390089
Fe      13.01906028       4.24748933      12.19042875
Fe      10.73156983       6.49150388      14.52593288
Fe      11.32669968       8.63691532      13.69400340
Fe      12.43685824       6.59350766      12.73678104
