75
Lattice="14.350000000000001 0.0 0.0 0.0 14.350000000000001 0.0 0.0 0.0 20.0" Properties=species:S:1:pos:R:3 generator=RattleGenerator uuid=14b84044-b2d8-4360-8fb1-1af0b8439bc3 model_energy=-412.3287596944047 uncertainty=5.932512682168225 acquisition_value=-424.1937850587412 time_stamp=26050.09134888649 search_iteration=28 relaxation_steps=82 relax_index=1 final=1 parent_search_iterations="_JSON [2]" parent_uuids="_JSON [\"648f5fdb-ad86-4590-8334-41e4e3caa89a\"]" spawn_uuids="_JSON [\"648f5fdb-ad86-4590-8334-41e4e3caa89a\"]" evaluator_energy="_JSON {\"28\": -411.7815626278087}" iteration=28 database_id=25 pbc="T T F"
O        1.43500000       1.43500000      10.00000000
Mg       0.00000000       0.00000000      10.00000000
O        1.43500000       4.30500000      10.00000000
Mg       0.00000000       2.87000000      10.00000000
O        1.43500000       7.17500000      10.00000000
Mg       0.00000000       5.74000000      10.00000000
O        1.43500000      10.04500000      10.00000000
Mg       0.00000000       8.61000000      10.00000000
O        1.43500000      12.91500000      10.00000000
Mg       0.00000000      11.48000000      10.00000000
O        4.30500000       1.43500000      10.00000000
Mg       2.87000000       0.00000000      10.00000000
O        4.30500000       4.30500000      10.00000000
Mg       2.87000000       2.87000000      10.00000000
O        4.30500000       7.17500000      10.00000000
Mg       2.87000000       5.74000000      10.00000000
O        4.30500000      10.04500000      10.00000000
Mg       2.87000000       8.61000000      10.00000000
O        4.30500000      12.91500000      10.00000000
Mg       2.87000000      11.48000000      10.00000000
O        7.17500000       1.43500000      10.00000000
Mg       5.74000000       0.00000000      10.00000000
O        7.17500000       4.30500000      10.00000000
Mg       5.74000000       2.87000000      10.00000000
O        7.17500000       7.17500000      10.00000000
Mg       5.74000000       5.74000000      10.00000000
O        7.17500000      10.04500000      10.00000000
Mg       5.74000000       8.61000000      10.00000000
O        7.17500000      12.91500000      10.00000000
Mg       5.74000000      11.48000000      10.00000000
O       10.04500000       1.43500000      10.00000000
Mg       8.61000000       0.00000000      10.00000000
O       10.04500000       4.30500000      10.00000000
Mg       8.61000000       2.87000000      10.00000000
O       10.04500000       7.17500000      10.00000000
Mg       8.61000000       5.74000000      10.00000000
O       10.04500000      10.04500000      10.00000000
Mg       8.61000000       8.61000000      10.00000000
O       10.04500000      12.91500000      10.00000000
Mg       8.61000000      11.48000000      10.00000000
O       12.91500000       1.43500000      10.00000000
Mg      11.48000000       0.00000000      10.00000000
O       12.91500000       4.30500000      10.00000000
Mg      11.48000000       2.87000000      10.00000000
O       12.91500000       7.17500000      10.00000000
Mg      11.48000000       5.74000000      10.00000000
O       12.91500000      10.04500000      10.00000000
Mg      11.48000000       8.61000000      10.00000000
O       12.91500000      12.91500000      10.00000000
Mg      11.48000000      11.48000000      10.00000000
Fe       1.29809062       1.22935533      12.38174138
Fe       1.33696363       3.57995120      12.37651490
Fe       1.56394353       6.58485592      12.37191566
Fe       0.95038843      10.46742827      12.36486762
Fe       2.00668067      12.66612886      12.36085048
Fe       3.63642000       1.42708215      12.37127313
Fe       4.10569311       4.77757666      12.36595628
Fe       4.75253810       7.08434214      12.36929926
Fe       3.86050874      10.11444020      12.37017745
Fe       4.97203475      12.95473876      12.36532718
Fe       6.65267111       1.27287764      12.36426737
Fe       7.05749013       4.29967190      12.40436684
Fe       7.81375887       7.20206792      12.36489592
Fe       6.85296621      10.08875269      12.37393328
Fe       7.99063038      12.90819919      12.38113752
Fe       9.66397739       1.31041745      12.37644070
Fe      10.08483575       4.33079523      12.40281595
Fe      10.83420055       7.28730229      12.37996105
Fe       9.26473562       9.96395391      12.37580261
Fe      10.37809695      12.73018016      12.37165011
Fe      12.74849835       1.94099596      12.36748400
Fe      13.01421193       4.96675693      12.36020462
Fe      13.97710283       7.76865492      12.85877630
Fe      12.28021907      10.17014254      12.36409346
Fe      13.42051752      13.06386838      12.36815795
