75
Lattice="14.350000000000001 0.0 0.0 0.0 14.350000000000001 0.0 0.0 0.0 20.0" Properties=species:S:1:pos:R:3 generator=HeteroStructRandomize uuid=e740e6a3-9f69-4aa2-951d-083d5a6d2e73 model_energy=-416.4386159131011 uncertainty=2.9783928352521087 acquisition_value=-422.39540158360535 time_stamp=23307.19877099991 search_iteration=24 relaxation_steps=67 relax_index=1 final=1 parent_search_iterations="_JSON []" parent_uuids="_JSON []" spawn_uuids="_JSON [\"e740e6a3-9f69-4aa2-951d-083d5a6d2e73\"]" evaluator_energy="_JSON {\"24\": -415.36622242299575}" iteration=24 database_id=21 pbc="T T F"
O        1.43500000       1.43500000      10.00000000
Mg       0.00000000       0.00000000      10.00000000
O        1.43500000       4.30500000      10.00000000
Mg       0.00000000       2.87000000      10.00000000
O        1.43500000       7.17500000      10.00000000
Mg       0.00000000       5.74000000      10.00000000
O        1.43500000      10.04500000      10.00000000
Mg       0.00000000       8.61000000      10.00000000
O        1.43500000      12.91500000      10.00000000
Mg       0.00000000      11.48000000      10.00000000
O        4.30500000       1.43500000      10.00000000
Mg       2.87000000       0.00000000      10.00000000
O        4.30500000       4.30500000      10.00000000
Mg       2.87000000       2.87000000      10.00000000
O        4.30500000       7.17500000      10.00000000
Mg       2.87000000       5.74000000      10.00000000
O        4.30500000      10.04500000      10.00000000
Mg       2.87000000       8.61000000      10.00000000
O        4.30500000      12.91500000      10.00000000
Mg       2.87000000      11.48000000      10.00000000
O        7.17500000       1.43500000      10.00000000
Mg       5.74000000       0.00000000      10.00000000
O        7.17500000       4.30500000      10.00000000
Mg       5.74000000       2.87000000      10.00000000
O        7.17500000       7.17500000      10.00000000
Mg       5.74000000       5.74000000      10.00000000
O        7.17500000      10.04500000      10.00000000
Mg       5.74000000       8.61000000      10.00000000
O        7.17500000      12.91500000      10.00000000
Mg       5.74000000      11.48000000      10.00000000
O       10.04500000       1.43500000      10.00000000
Mg       8.61000000       0.00000000      10.00000000
O       10.04500000       4.30500000      10.00000000
Mg       8.61000000       2.87000000      10.00000000
O       10.04500000       7.17500000      10.00000000
Mg       8.61000000       5.74000000      10.00000000
O       10.04500000      10.04500000      10.00000000
Mg       8.61000000       8.61000000      10.00000000
O       10.04500000      12.91500000      10.00000000
Mg       8.61000000      11.48000000      10.00000000
O       12.91500000       1.43500000      10.00000000
Mg      11.48000000       0.00000000      10.00000000
O       12.91500000       4.30500000      10.00000000
Mg      11.48000000       2.87000000      10.00000000
O       12.91500000       7.17500000      10.00000000
Mg      11.48000000       5.74000000      10.00000000
O       12.91500000      10.04500000      10.00000000
Mg      11.48000000       8.61000000      10.00000000
O       12.91500000      12.91500000      10.00000000
Mg      11.48000000      11.48000000      10.00000000
Fe       1.70052493       1.23488803      12.44709657
Fe       1.74258827       4.96617020      12.49762355
Fe       1.72708562       7.63370471      12.48190201
Fe       1.64143207      10.30469599      12.44363069
Fe       1.63952023      12.97022132      12.41960447
Fe       4.32635462       1.32866909      12.40495894
Fe       4.31148225       3.96924360      12.44423283
Fe       4.38721561       7.66710321      12.47197818
Fe       4.31292820      10.32042574      12.42919292
Fe       4.30939891      12.98981652      12.40064989
Fe       7.00913272       1.34792043      12.41557255
Fe       7.02661513       4.01080016      12.43993505
Fe       7.00081469       6.64806330      12.48074193
Fe       6.92962539      10.40718438      12.46787842
Fe       6.94380905      13.02700275      12.42993625
Fe       9.68699218       1.31946529      12.45108096
Fe       9.71143564       4.00127741      12.46855856
Fe       9.73978844       6.63334156      12.48881773
Fe      10.66401796      10.43004795      12.50262120
Fe      10.72169871      13.17272676      12.48714301
Fe      12.26137802       1.16752954      12.48749339
Fe      12.36288819       3.93595490      12.49261077
Fe      12.43622436       6.57572537      12.51140438
Fe      13.31215908      10.35669472      12.47800468
Fe      13.30891162      13.00850663      12.45404479
