75
Lattice="14.350000000000001 0.0 0.0 0.0 14.350000000000001 0.0 0.0 0.0 20.0" Properties=species:S:1:pos:R:3 generator=RattleGenerator uuid=4b1434cd-62b4-4d34-bf59-116421c8603c model_energy=-428.79636436836785 uncertainty=0.5888693974316539 acquisition_value=-429.9741031632312 time_stamp=19077.705691099167 search_iteration=59 relaxation_steps=100 relax_index=1 final=1 parent_search_iterations="_JSON [55]" parent_uuids="_JSON [\"f7564d4a-0000-4c19-83a9-a36bf81f5481\"]" spawn_uuids="_JSON [\"ff0ad4c6-972f-486e-a3f8-19d1767f5664\"]" evaluator_energy="_JSON {\"59\": -428.8170584483244}" iteration=59 database_id=59 pbc="T T F"
O        1.43500000       1.43500000      10.00000000
Mg       0.00000000       0.00000000      10.00000000
O        1.43500000       4.30500000      10.00000000
Mg       0.00000000       2.87000000      10.00000000
O        1.43500000       7.17500000      10.00000000
Mg       0.00000000       5.74000000      10.00000000
O        1.43500000      10.04500000      10.00000000
Mg       0.00000000       8.61000000      10.00000000
O        1.43500000      12.91500000      10.00000000
Mg       0.00000000      11.48000000      10.00000000
O        4.30500000       1.43500000      10.00000000
Mg       2.87000000       0.00000000      10.00000000
O        4.30500000       4.30500000      10.00000000
Mg       2.87000000       2.87000000      10.00000000
O        4.30500000       7.17500000      10.00000000
Mg       2.87000000       5.74000000      10.00000000
O        4.30500000      10.04500000      10.00000000
Mg       2.87000000       8.61000000      10.00000000
O        4.30500000      12.91500000      10.00000000
Mg       2.87000000      11.48000000      10.00000000
O        7.17500000       1.43500000      10.00000000
Mg       5.74000000       0.00000000      10.00000000
O        7.17500000       4.30500000      10.00000000
Mg       5.74000000       2.87000000      10.00000000
O        7.17500000       7.17500000      10.00000000
Mg       5.74000000       5.74000000      10.00000000
O        7.17500000      10.04500000      10.00000000
Mg       5.74000000       8.61000000      10.00000000
O        7.17500000      12.91500000      10.00000000
Mg       5.74000000      11.48000000      10.00000000
O       10.04500000       1.43500000      10.00000000
Mg       8.61000000       0.00000000      10.00000000
O       10.04500000       4.30500000      10.00000000
Mg       8.61000000       2.87000000      10.00000000
O       10.04500000       7.17500000      10.00000000
Mg       8.61000000       5.74000000      10.00000000
O       10.04500000      10.04500000      10.00000000
Mg       8.61000000       8.61000000      10.00000000
O       10.04500000      12.91500000      10.00000000
Mg       8.61000000      11.48000000      10.00000000
O       12.91500000       1.43500000      10.00000000
Mg      11.48000000       0.00000000      10.00000000
O       12.91500000       4.30500000      10.00000000
Mg      11.48000000       2.87000000      10.00000000
O       12.91500000       7.17500000      10.00000000
Mg      11.48000000       5.74000000      10.00000000
O       12.91500000      10.04500000      10.00000000
Mg      11.48000000       8.61000000      10.00000000
O       12.91500000      12.91500000      10.00000000
Mg      11.48000000      11.48000000      10.00000000
Fe       1.28807835       1.46925820      12.27346598
Fe      -0.00534642       2.72919531      14.17446089
Fe      -0.60010583       5.01962998      14.47134265
Fe       0.45193694       6.23486376      12.68544600
Fe       1.76700825      13.32808876      12.26754728
Fe       5.57307069      -0.34286671      13.96483421
Fe       0.95258709       3.91452597      12.33409487
Fe       6.43015986       9.62073635      14.20000824
Fe       4.86435306      10.39045417      12.37143760
Fe       4.24056238      12.81439678      12.23977698
Fe       9.07277712       6.19491195      14.02317062
Fe       7.63092043       7.57091194      12.33852307
Fe       8.65140622       8.59935535      14.17541232
Fe       7.29497918       9.91739318      12.10470922
Fe       6.52992506      12.10888792      12.79163808
Fe      11.92570037       3.30057984      13.99516559
Fe      10.53238040       4.74646216      12.32293756
Fe      10.04156239       7.15246999      12.14952782
Fe       9.71447205       9.55342372      12.29141753
Fe       8.46922013      11.01365657      13.88147745
Fe      13.23193236       1.99091680      12.23854302
Fe      12.97085588       4.41394000      12.21863638
Fe      11.45298696       5.70083518      14.21358178
Fe      11.00928765       8.09708854      14.03593204
Fe      12.46743470       6.75867647      12.36669361
