75
Lattice="14.350000000000001 0.0 0.0 0.0 14.350000000000001 0.0 0.0 0.0 20.0" Properties=species:S:1:pos:R:3 generator=HeteroStructRandomize uuid=8e08701b-d6c9-488e-ab13-1bb8ada8920a model_energy=-417.17323487564045 uncertainty=2.316622948004618 acquisition_value=-421.80648077164966 time_stamp=6277.236710548401 search_iteration=19 relaxation_steps=56 relax_index=1 final=1 parent_search_iterations="_JSON []" parent_uuids="_JSON []" spawn_uuids="_JSON [\"8e08701b-d6c9-488e-ab13-1bb8ada8920a\"]" evaluator_energy="_JSON {\"19\": -418.24564190994045}" iteration=19 database_id=19 pbc="T T F"
O        1.43500000       1.43500000      10.00000000
Mg       0.00000000       0.00000000      10.00000000
O        1.43500000       4.30500000      10.00000000
Mg       0.00000000       2.87000000      10.00000000
O        1.43500000       7.17500000      10.00000000
Mg       0.00000000       5.74000000      10.00000000
O        1.43500000      10.04500000      10.00000000
Mg       0.00000000       8.61000000      10.00000000
O        1.43500000      12.91500000      10.00000000
Mg       0.00000000      11.48000000      10.00000000
O        4.30500000       1.43500000      10.00000000
Mg       2.87000000       0.00000000      10.00000000
O        4.30500000       4.30500000      10.00000000
Mg       2.87000000       2.87000000      10.00000000
O        4.30500000       7.17500000      10.00000000
Mg       2.87000000       5.74000000      10.00000000
O        4.30500000      10.04500000      10.00000000
Mg       2.87000000       8.61000000      10.00000000
O        4.30500000      12.91500000      10.00000000
Mg       2.87000000      11.48000000      10.00000000
O        7.17500000       1.43500000      10.00000000
Mg       5.74000000       0.00000000      10.00000000
O        7.17500000       4.30500000      10.00000000
Mg       5.74000000       2.87000000      10.00000000
O        7.17500000       7.17500000      10.00000000
Mg       5.74000000       5.74000000      10.00000000
O        7.17500000      10.04500000      10.00000000
Mg       5.74000000       8.61000000      10.00000000
O        7.17500000      12.91500000      10.00000000
Mg       5.74000000      11.48000000      10.00000000
O       10.04500000       1.43500000      10.00000000
Mg       8.61000000       0.00000000      10.00000000
O       10.04500000       4.30500000      10.00000000
Mg       8.61000000       2.87000000      10.00000000
O       10.04500000       7.17500000      10.00000000
Mg       8.61000000       5.74000000      10.00000000
O       10.04500000      10.04500000      10.00000000
Mg       8.61000000       8.61000000      10.00000000
O       10.04500000      12.91500000      10.00000000
Mg       8.61000000      11.48000000      10.00000000
O       12.91500000       1.43500000      10.00000000
Mg      11.48000000       0.00000000      10.00000000
O       12.91500000       4.30500000      10.00000000
Mg      11.48000000       2.87000000      10.00000000
O       12.91500000       7.17500000      10.00000000
Mg      11.48000000       5.74000000      10.00000000
O       12.91500000      10.04500000      10.00000000
Mg      11.48000000       8.61000000      10.00000000
O       12.91500000      12.91500000      10.00000000
Mg      11.48000000      11.48000000      10.00000000
Fe       1.64337582       1.64800067      12.21278253
Fe       1.68273498       4.12671457      12.21044024
Fe       1.69494966       7.32260812      12.21010598
Fe       1.46376515       9.75233655      12.21514133
Fe       1.84066099      12.87937282      12.22007199
Fe       4.09865968       1.29715003      12.20951815
Fe       4.12170303       4.48317635      12.21389629
Fe       4.13725853       7.00014889      12.20974406
Fe       4.52432426      10.04873630      12.21851636
Fe       4.29975635      13.18335655      12.19548479
Fe       7.22248931       1.15561405      12.21764722
Fe       7.41846642       4.29418539      12.21971059
Fe       7.31982116       7.40140460      12.21149848
Fe       6.97812945       9.83378670      12.21181163
Fe       6.85915360      13.06245353      12.21314346
Fe      10.25072449       1.67584382      12.20935083
Fe       9.83898384       4.11393122      12.20943993
Fe       9.79264892       7.36206949      12.21305503
Fe      10.18705242       9.83120084      12.21257692
Fe      10.18966461      12.95723459      12.21494312
Fe      12.73337794       1.65516374      12.20859595
Fe      12.95009372       4.07787813      12.21971206
Fe      12.91108989       7.39688770      12.22113391
Fe      12.66035471       9.84332242      12.21170987
Fe      12.58323881      12.92250069      12.21737446
