75
Lattice="14.350000000000001 0.0 0.0 0.0 14.350000000000001 0.0 0.0 0.0 20.0" Properties=species:S:1:pos:R:3 generator=RattleGenerator uuid=98033526-dcc3-42dd-b0b7-52837c5bea75 model_energy=-430.4253641197545 uncertainty=0.45423236209620543 acquisition_value=-431.3338288439469 time_stamp=20601.737117290497 search_iteration=66 relaxation_steps=100 relax_index=1 final=1 parent_search_iterations="_JSON [65]" parent_uuids="_JSON [\"18c24945-cb05-4d1e-81d2-24c541a6f4c5\"]" spawn_uuids="_JSON [\"ff0ad4c6-972f-486e-a3f8-19d1767f5664\"]" evaluator_energy="_JSON {\"66\": -430.48350128285097}" iteration=66 database_id=66 pbc="T T F"
O        1.43500000       1.43500000      10.00000000
Mg       0.00000000       0.00000000      10.00000000
O        1.43500000       4.30500000      10.00000000
Mg       0.00000000       2.87000000      10.00000000
O        1.43500000       7.17500000      10.00000000
Mg       0.00000000       5.74000000      10.00000000
O        1.43500000      10.04500000      10.00000000
Mg       0.00000000       8.61000000      10.00000000
O        1.43500000      12.91500000      10.00000000
Mg       0.00000000      11.48000000      10.00000000
O        4.30500000       1.43500000      10.00000000
Mg       2.87000000       0.00000000      10.00000000
O        4.30500000       4.30500000      10.00000000
Mg       2.87000000       2.87000000      10.00000000
O        4.30500000       7.17500000      10.00000000
Mg       2.87000000       5.74000000      10.00000000
O        4.30500000      10.04500000      10.00000000
Mg       2.87000000       8.61000000      10.00000000
O        4.30500000      12.91500000      10.00000000
Mg       2.87000000      11.48000000      10.00000000
O        7.17500000       1.43500000      10.00000000
Mg       5.74000000       0.00000000      10.00000000
O        7.17500000       4.30500000      10.00000000
Mg       5.74000000       2.87000000      10.00000000
O        7.17500000       7.17500000      10.00000000
Mg       5.74000000       5.74000000      10.00000000
O        7.17500000      10.04500000      10.00000000
Mg       5.74000000       8.61000000      10.00000000
O        7.17500000      12.91500000      10.00000000
Mg       5.74000000      11.48000000      10.00000000
O       10.04500000       1.43500000      10.00000000
Mg       8.61000000       0.00000000      10.00000000
O       10.04500000       4.30500000      10.00000000
Mg       8.61000000       2.87000000      10.00000000
O       10.04500000       7.17500000      10.00000000
Mg       8.61000000       5.74000000      10.00000000
O       10.04500000      10.04500000      10.00000000
Mg       8.61000000       8.61000000      10.00000000
O       10.04500000      12.91500000      10.00000000
Mg       8.61000000      11.48000000      10.00000000
O       12.91500000       1.43500000      10.00000000
Mg      11.48000000       0.00000000      10.00000000
O       12.91500000       4.30500000      10.00000000
Mg      11.48000000       2.87000000      10.00000000
O       12.91500000       7.17500000      10.00000000
Mg      11.48000000       5.74000000      10.00000000
O       12.91500000      10.04500000      10.00000000
Mg      11.48000000       8.61000000      10.00000000
O       12.91500000      12.91500000      10.00000000
Mg      11.48000000      11.48000000      10.00000000
Fe       2.85195228       2.85305072      13.43034736
Fe       0.51589759       3.22685325      14.25746220
Fe      -0.11378592       5.55546656      13.45301245
Fe       1.05347978       3.89257602      12.09893960
Fe       2.96397283      14.60071657      13.73458927
Fe       4.28217026       1.37160657      12.15719301
Fe       1.48207721       1.43831327      12.19531634
Fe       6.67417994       9.30605171      14.31876532
Fe       5.61554439      11.31999436      13.38412945
Fe       4.49506690      13.18006569      12.26079769
Fe       9.54278003       6.60535435      14.23893609
Fe       7.84130517       7.78386646      12.71378938
Fe       9.07752540       9.00066388      14.39297796
Fe       7.17699341      10.03233426      12.08906836
Fe       7.05781179      12.78351594      12.20355713
Fe      12.44388552       3.75608756      14.22487343
Fe      10.71061289       4.92856080      12.72199092
Fe      10.07332640       7.18687512      12.09175050
Fe       9.64121810       9.66588808      12.21366860
Fe       8.24972193      11.22952866      13.70878000
Fe      13.52829774       2.06164627      12.64839968
Fe      12.93085311       4.30532371      12.07018667
Fe      11.97720108       6.15647488      14.35023660
Fe      11.33545641       8.42201280      13.57980769
Fe      12.52890453       6.78093324      12.14969080
