75
Lattice="14.350000000000001 0.0 0.0 0.0 14.350000000000001 0.0 0.0 0.0 20.0" Properties=species:S:1:pos:R:3 generator=HeteroStructRandomize uuid=8e82f798-78ba-433e-8e46-aad097be1b86 model_energy=-416.2631884688629 uncertainty=1.8642855784019927 acquisition_value=-419.9917596256669 time_stamp=5591.441127538681 search_iteration=22 relaxation_steps=39 relax_index=1 final=1 parent_search_iterations="_JSON []" parent_uuids="_JSON []" spawn_uuids="_JSON [\"8e82f798-78ba-433e-8e46-aad097be1b86\"]" evaluator_energy="_JSON {\"22\": -417.8363883701515}" iteration=22 database_id=22 pbc="T T F"
O        1.43500000       1.43500000      10.00000000
Mg       0.00000000       0.00000000      10.00000000
O        1.43500000       4.30500000      10.00000000
Mg       0.00000000       2.87000000      10.00000000
O        1.43500000       7.17500000      10.00000000
Mg       0.00000000       5.74000000      10.00000000
O        1.43500000      10.04500000      10.00000000
Mg       0.00000000       8.61000000      10.00000000
O        1.43500000      12.91500000      10.00000000
Mg       0.00000000      11.48000000      10.00000000
O        4.30500000       1.43500000      10.00000000
Mg       2.87000000       0.00000000      10.00000000
O        4.30500000       4.30500000      10.00000000
Mg       2.87000000       2.87000000      10.00000000
O        4.30500000       7.17500000      10.00000000
Mg       2.87000000       5.74000000      10.00000000
O        4.30500000      10.04500000      10.00000000
Mg       2.87000000       8.61000000      10.00000000
O        4.30500000      12.91500000      10.00000000
Mg       2.87000000      11.48000000      10.00000000
O        7.17500000       1.43500000      10.00000000
Mg       5.74000000       0.00000000      10.00000000
O        7.17500000       4.30500000      10.00000000
Mg       5.74000000       2.87000000      10.00000000
O        7.17500000       7.17500000      10.00000000
Mg       5.74000000       5.74000000      10.00000000
O        7.17500000      10.04500000      10.00000000
Mg       5.74000000       8.61000000      10.00000000
O        7.17500000      12.91500000      10.00000000
Mg       5.74000000      11.48000000      10.00000000
O       10.04500000       1.43500000      10.00000000
Mg       8.61000000       0.00000000      10.00000000
O       10.04500000       4.30500000      10.00000000
Mg       8.61000000       2.87000000      10.00000000
O       10.04500000       7.17500000      10.00000000
Mg       8.61000000       5.74000000      10.00000000
O       10.04500000      10.04500000      10.00000000
Mg       8.61000000       8.61000000      10.00000000
O       10.04500000      12.91500000      10.00000000
Mg       8.61000000      11.48000000      10.00000000
O       12.91500000       1.43500000      10.00000000
Mg      11.48000000       0.00000000      10.00000000
O       12.91500000       4.30500000      10.00000000
Mg      11.48000000       2.87000000      10.00000000
O       12.91500000       7.17500000      10.00000000
Mg      11.48000000       5.74000000      10.00000000
O       12.91500000      10.04500000      10.00000000
Mg      11.48000000       8.61000000      10.00000000
O       12.91500000      12.91500000      10.00000000
Mg      11.48000000      11.48000000      10.00000000
Fe       1.16942635       1.00913641      12.40235451
Fe       1.18344164       4.46556090      12.33173517
Fe       1.21733460       6.91384679      12.35292856
Fe       1.19142994      10.36488736      12.37434440
Fe       1.24360188      12.88420520      12.28520951
Fe       4.67909388       1.26018384      12.37355870
Fe       4.62433166       4.65298265      12.40009060
Fe       4.68969789       7.18516610      12.33675731
Fe       4.70681377       9.69998435      12.42454096
Fe       4.69042140      13.16791569      12.39247508
Fe       7.15996277       1.70535380      12.29694475
Fe       7.13555823       4.31062430      12.23039656
Fe       7.18910618       6.93112190      12.28439275
Fe       7.15910227      10.18528539      12.26478905
Fe       7.16342710      12.73389665      12.26931904
Fe       9.68183697       1.81847516      12.42569364
Fe       9.67802789       4.31480000      12.32539186
Fe       9.67313915       6.82610062      12.41621329
Fe       9.66827241      10.26141269      12.38102066
Fe       9.68156945      12.69613475      12.37782291
Fe      13.15447098       1.44488744      12.30321292
Fe      13.15350507       3.94643794      12.38779030
Fe      13.18275828       7.40041077      12.36168884
Fe      13.17773398       9.86325277      12.34719863
Fe      13.25140610      13.33831355      12.42334526
