75
Lattice="14.350000000000001 0.0 0.0 0.0 14.350000000000001 0.0 0.0 0.0 20.0" Properties=species:S:1:pos:R:3 generator=HeteroStructRandomize uuid=84b2f74c-0eb9-4208-b61c-48edb3e3d462 model_energy=-408.5895084271178 uncertainty=10.239805793319864 acquisition_value=-429.0691200137575 time_stamp=2893.2675879001617 search_iteration=12 relaxation_steps=51 relax_index=1 final=1 parent_search_iterations="_JSON []" parent_uuids="_JSON []" spawn_uuids="_JSON [\"84b2f74c-0eb9-4208-b61c-48edb3e3d462\"]" evaluator_energy="_JSON {\"12\": -416.6583706938674}" iteration=12 database_id=12 pbc="T T F"
O        1.43500000       1.43500000      10.00000000
Mg       0.00000000       0.00000000      10.00000000
O        1.43500000       4.30500000      10.00000000
Mg       0.00000000       2.87000000      10.00000000
O        1.43500000       7.17500000      10.00000000
Mg       0.00000000       5.74000000      10.00000000
O        1.43500000      10.04500000      10.00000000
Mg       0.00000000       8.61000000      10.00000000
O        1.43500000      12.91500000      10.00000000
Mg       0.00000000      11.48000000      10.00000000
O        4.30500000       1.43500000      10.00000000
Mg       2.87000000       0.00000000      10.00000000
O        4.30500000       4.30500000      10.00000000
Mg       2.87000000       2.87000000      10.00000000
O        4.30500000       7.17500000      10.00000000
Mg       2.87000000       5.74000000      10.00000000
O        4.30500000      10.04500000      10.00000000
Mg       2.87000000       8.61000000      10.00000000
O        4.30500000      12.91500000      10.00000000
Mg       2.87000000      11.48000000      10.00000000
O        7.17500000       1.43500000      10.00000000
Mg       5.74000000       0.00000000      10.00000000
O        7.17500000       4.30500000      10.00000000
Mg       5.74000000       2.87000000      10.00000000
O        7.17500000       7.17500000      10.00000000
Mg       5.74000000       5.74000000      10.00000000
O        7.17500000      10.04500000      10.00000000
Mg       5.74000000       8.61000000      10.00000000
O        7.17500000      12.91500000      10.00000000
Mg       5.74000000      11.48000000      10.00000000
O       10.04500000       1.43500000      10.00000000
Mg       8.61000000       0.00000000      10.00000000
O       10.04500000       4.30500000      10.00000000
Mg       8.61000000       2.87000000      10.00000000
O       10.04500000       7.17500000      10.00000000
Mg       8.61000000       5.74000000      10.00000000
O       10.04500000      10.04500000      10.00000000
Mg       8.61000000       8.61000000      10.00000000
O       10.04500000      12.91500000      10.00000000
Mg       8.61000000      11.48000000      10.00000000
O       12.91500000       1.43500000      10.00000000
Mg      11.48000000       0.00000000      10.00000000
O       12.91500000       4.30500000      10.00000000
Mg      11.48000000       2.87000000      10.00000000
O       12.91500000       7.17500000      10.00000000
Mg      11.48000000       5.74000000      10.00000000
O       12.91500000      10.04500000      10.00000000
Mg      11.48000000       8.61000000      10.00000000
O       12.91500000      12.91500000      10.00000000
Mg      11.48000000      11.48000000      10.00000000
Fe       1.43616638       1.43405565      12.31094396
Fe       1.44222862       4.30366014      12.31369910
Fe       1.43288766       7.17192607      12.30444365
Fe       1.42907057      10.04737912      12.32690310
Fe       1.43035315      12.91416542      12.30531139
Fe       4.30741921       1.43583997      12.30684953
Fe       4.30156477       4.30439996      12.31181417
Fe       4.31070436       7.17222942      12.31313368
Fe       4.28605133      10.04020768      12.31706313
Fe       4.30796059      12.92147727      12.30737715
Fe       7.17507821       1.43791253      12.31449228
Fe       7.17197694       4.29837563      12.31028737
Fe       7.18264648       7.17893647      12.31487557
Fe       7.16617411      10.04269950      12.31217485
Fe       7.17342457      12.92009252      12.30611980
Fe      10.04609328       1.43096634      12.30540698
Fe      10.04327684       4.30805185      12.31724081
Fe      10.05657356       7.18640295      12.31666606
Fe      10.06170341      10.04178584      12.31535862
Fe      10.04335561      12.91891013      12.31312104
Fe      12.91587173       1.43576956      12.31790157
Fe      12.91255277       4.30928761      12.30524162
Fe      12.90698415       7.16840037      12.30628641
Fe      12.90681733      10.04211577      12.30513966
Fe      12.91163053      12.92965246      12.30568542
