75
Lattice="14.350000000000001 0.0 0.0 0.0 14.350000000000001 0.0 0.0 0.0 20.0" Properties=species:S:1:pos:R:3 generator=HeteroStructRandomize uuid=0afbcd06-e751-46cd-8f6f-710ace0b8cd9 model_energy=-414.9991413575885 uncertainty=3.6227460416385417 acquisition_value=-422.2446334408656 time_stamp=10014.16330575943 search_iteration=20 relaxation_steps=45 relax_index=1 final=1 parent_search_iterations="_JSON []" parent_uuids="_JSON []" spawn_uuids="_JSON [\"0afbcd06-e751-46cd-8f6f-710ace0b8cd9\"]" evaluator_energy="_JSON {\"20\": -417.5498230508323}" iteration=20 database_id=20 pbc="T T F"
O        1.43500000       1.43500000      10.00000000
Mg       0.00000000       0.00000000      10.00000000
O        1.43500000       4.30500000      10.00000000
Mg       0.00000000       2.87000000      10.00000000
O        1.43500000       7.17500000      10.00000000
Mg       0.00000000       5.74000000      10.00000000
O        1.43500000      10.04500000      10.00000000
Mg       0.00000000       8.61000000      10.00000000
O        1.43500000      12.91500000      10.00000000
Mg       0.00000000      11.48000000      10.00000000
O        4.30500000       1.43500000      10.00000000
Mg       2.87000000       0.00000000      10.00000000
O        4.30500000       4.30500000      10.00000000
Mg       2.87000000       2.87000000      10.00000000
O        4.30500000       7.17500000      10.00000000
Mg       2.87000000       5.74000000      10.00000000
O        4.30500000      10.04500000      10.00000000
Mg       2.87000000       8.61000000      10.00000000
O        4.30500000      12.91500000      10.00000000
Mg       2.87000000      11.48000000      10.00000000
O        7.17500000       1.43500000      10.00000000
Mg       5.74000000       0.00000000      10.00000000
O        7.17500000       4.30500000      10.00000000
Mg       5.74000000       2.87000000      10.00000000
O        7.17500000       7.17500000      10.00000000
Mg       5.74000000       5.74000000      10.00000000
O        7.17500000      10.04500000      10.00000000
Mg       5.74000000       8.61000000      10.00000000
O        7.17500000      12.91500000      10.00000000
Mg       5.74000000      11.48000000      10.00000000
O       10.04500000       1.43500000      10.00000000
Mg       8.61000000       0.00000000      10.00000000
O       10.04500000       4.30500000      10.00000000
Mg       8.61000000       2.87000000      10.00000000
O       10.04500000       7.17500000      10.00000000
Mg       8.61000000       5.74000000      10.00000000
O       10.04500000      10.04500000      10.00000000
Mg       8.61000000       8.61000000      10.00000000
O       10.04500000      12.91500000      10.00000000
Mg       8.61000000      11.48000000      10.00000000
O       12.91500000       1.43500000      10.00000000
Mg      11.48000000       0.00000000      10.00000000
O       12.91500000       4.30500000      10.00000000
Mg      11.48000000       2.87000000      10.00000000
O       12.91500000       7.17500000      10.00000000
Mg      11.48000000       5.74000000      10.00000000
O       12.91500000      10.04500000      10.00000000
Mg      11.48000000       8.61000000      10.00000000
O       12.91500000      12.91500000      10.00000000
Mg      11.48000000      11.48000000      10.00000000
Fe       1.62306257       1.11288596      12.38424643
Fe       1.61367652       4.49138213      12.36458862
Fe       1.61598899       6.97461195      12.36644659
Fe       1.62845101      10.37076185      12.38184303
Fe       1.61749418      12.92237316      12.35267284
Fe       4.11579196       1.08717123      12.38702193
Fe       4.12633204       4.47845346      12.36053402
Fe       4.11780374       6.95860288      12.36728835
Fe       4.10963380      10.36114113      12.38241310
Fe       4.11721533      12.90956343      12.35464885
Fe       7.47323380       1.45144012      12.36881942
Fe       7.48710288       3.98891685      12.39135376
Fe       7.46142639       7.39129950      12.37440964
Fe       7.46190845       9.85391563      12.37701351
Fe       7.47927873      13.27200970      12.39842215
Fe      10.03144123       1.46902559      12.34317208
Fe      10.03482287       4.00184221      12.36743759
Fe      10.05552844       7.41018931      12.35690676
Fe      10.07106447       9.88495680      12.35345262
Fe      10.05562382      13.25204844      12.37717859
Fe      12.60092696       1.56897569      12.37610719
Fe      12.59603208       4.05205961      12.38680836
Fe      12.64108308       7.45736560      12.38235455
Fe      12.64137808       9.98988357      12.36521599
Fe      12.56585131      12.58711559      12.39870870
