75
Lattice="14.350000000000001 0.0 0.0 0.0 14.350000000000001 0.0 0.0 0.0 20.0" Properties=species:S:1:pos:R:3 generator=HeteroStructRandomize uuid=9f9e1806-8ddc-44ab-89d5-6d6d430dc2b1 model_energy=-416.17779817657424 uncertainty=3.4728953649969876 acquisition_value=-423.1235889065682 time_stamp=4111.682656526566 search_iteration=16 relaxation_steps=67 relax_index=1 final=1 parent_search_iterations="_JSON []" parent_uuids="_JSON []" spawn_uuids="_JSON [\"9f9e1806-8ddc-44ab-89d5-6d6d430dc2b1\"]" evaluator_energy="_JSON {\"16\": -418.1108472918467}" iteration=16 database_id=16 pbc="T T F"
O        1.43500000       1.43500000      10.00000000
Mg       0.00000000       0.00000000      10.00000000
O        1.43500000       4.30500000      10.00000000
Mg       0.00000000       2.87000000      10.00000000
O        1.43500000       7.17500000      10.00000000
Mg       0.00000000       5.74000000      10.00000000
O        1.43500000      10.04500000      10.00000000
Mg       0.00000000       8.61000000      10.00000000
O        1.43500000      12.91500000      10.00000000
Mg       0.00000000      11.48000000      10.00000000
O        4.30500000       1.43500000      10.00000000
Mg       2.87000000       0.00000000      10.00000000
O        4.30500000       4.30500000      10.00000000
Mg       2.87000000       2.87000000      10.00000000
O        4.30500000       7.17500000      10.00000000
Mg       2.87000000       5.74000000      10.00000000
O        4.30500000      10.04500000      10.00000000
Mg       2.87000000       8.61000000      10.00000000
O        4.30500000      12.91500000      10.00000000
Mg       2.87000000      11.48000000      10.00000000
O        7.17500000       1.43500000      10.00000000
Mg       5.74000000       0.00000000      10.00000000
O        7.17500000       4.30500000      10.00000000
Mg       5.74000000       2.87000000      10.00000000
O        7.17500000       7.17500000      10.00000000
Mg       5.74000000       5.74000000      10.00000000
O        7.17500000      10.04500000      10.00000000
Mg       5.74000000       8.61000000      10.00000000
O        7.17500000      12.91500000      10.00000000
Mg       5.74000000      11.48000000      10.00000000
O       10.04500000       1.43500000      10.00000000
Mg       8.61000000       0.00000000      10.00000000
O       10.04500000       4.30500000      10.00000000
Mg       8.61000000       2.87000000      10.00000000
O       10.04500000       7.17500000      10.00000000
Mg       8.61000000       5.74000000      10.00000000
O       10.04500000      10.04500000      10.00000000
Mg       8.61000000       8.61000000      10.00000000
O       10.04500000      12.91500000      10.00000000
Mg       8.61000000      11.48000000      10.00000000
O       12.91500000       1.43500000      10.00000000
Mg      11.48000000       0.00000000      10.00000000
O       12.91500000       4.30500000      10.00000000
Mg      11.48000000       2.87000000      10.00000000
O       12.91500000       7.17500000      10.00000000
Mg      11.48000000       5.74000000      10.00000000
O       12.91500000      10.04500000      10.00000000
Mg      11.48000000       8.61000000      10.00000000
O       12.91500000      12.91500000      10.00000000
Mg      11.48000000      11.48000000      10.00000000
Fe       1.29856641       1.43776221      12.22592873
Fe       1.60676593       4.50636460      12.21383181
Fe       1.58679630       7.02266774      12.21608285
Fe       1.23762794      10.20691703      12.21215902
Fe       1.28937026      12.72095171      12.21455737
Fe       4.45099534       1.27807863      12.21742644
Fe       4.11170859       4.45949651      12.21233783
Fe       4.09237163       6.96974371      12.20632489
Fe       4.30997155      10.04109896      12.23237360
Fe       4.46484570      13.11197605      12.21560091
Fe       6.96777779       1.23879234      12.21081638
Fe       7.16883172       4.30501308      12.23059924
Fe       7.18452077       7.34540240      12.22597987
Fe       7.31462200       9.92530749      12.22139867
Fe       6.97908078      13.08788199      12.21127687
Fe      10.04580756       1.41829522      12.23107626
Fe      10.23853786       4.49284456      12.21218084
Fe      10.26423985       6.99451539      12.20922549
Fe       9.92519386      10.14505577      12.22429985
Fe      10.04313147      12.77025942      12.22541470
Fe      13.07648226       1.43669457      12.22574668
Fe      12.74998709       4.51120307      12.21324314
Fe      12.76367290       7.02471742      12.21817940
Fe      13.07730572      10.19572269      12.21630633
Fe      13.13115466      12.70114026      12.20923621
