75
Lattice="14.350000000000001 0.0 0.0 0.0 14.350000000000001 0.0 0.0 0.0 20.0" Properties=species:S:1:pos:R:3 generator=HeteroStructRandomize uuid=b08e1420-b429-4fcd-9879-614419b54c4f model_energy=-407.7021262300498 uncertainty=11.93554027972067 acquisition_value=-431.57320678949117 time_stamp=4688.752391576767 search_iteration=12 relaxation_steps=37 relax_index=1 final=1 parent_search_iterations="_JSON []" parent_uuids="_JSON []" spawn_uuids="_JSON [\"b08e1420-b429-4fcd-9879-614419b54c4f\"]" evaluator_energy="_JSON {\"12\": -417.6367071469709}" iteration=12 database_id=12 pbc="T T F"
O        1.43500000       1.43500000      10.00000000
Mg       0.00000000       0.00000000      10.00000000
O        1.43500000       4.30500000      10.00000000
Mg       0.00000000       2.87000000      10.00000000
O        1.43500000       7.17500000      10.00000000
Mg       0.00000000       5.74000000      10.00000000
O        1.43500000      10.04500000      10.00000000
Mg       0.00000000       8.61000000      10.00000000
O        1.43500000      12.91500000      10.00000000
Mg       0.00000000      11.48000000      10.00000000
O        4.30500000       1.43500000      10.00000000
Mg       2.87000000       0.00000000      10.00000000
O        4.30500000       4.30500000      10.00000000
Mg       2.87000000       2.87000000      10.00000000
O        4.30500000       7.17500000      10.00000000
Mg       2.87000000       5.74000000      10.00000000
O        4.30500000      10.04500000      10.00000000
Mg       2.87000000       8.61000000      10.00000000
O        4.30500000      12.91500000      10.00000000
Mg       2.87000000      11.48000000      10.00000000
O        7.17500000       1.43500000      10.00000000
Mg       5.74000000       0.00000000      10.00000000
O        7.17500000       4.30500000      10.00000000
Mg       5.74000000       2.87000000      10.00000000
O        7.17500000       7.17500000      10.00000000
Mg       5.74000000       5.74000000      10.00000000
O        7.17500000      10.04500000      10.00000000
Mg       5.74000000       8.61000000      10.00000000
O        7.17500000      12.91500000      10.00000000
Mg       5.74000000      11.48000000      10.00000000
O       10.04500000       1.43500000      10.00000000
Mg       8.61000000       0.00000000      10.00000000
O       10.04500000       4.30500000      10.00000000
Mg       8.61000000       2.87000000      10.00000000
O       10.04500000       7.17500000      10.00000000
Mg       8.61000000       5.74000000      10.00000000
O       10.04500000      10.04500000      10.00000000
Mg       8.61000000       8.61000000      10.00000000
O       10.04500000      12.91500000      10.00000000
Mg       8.61000000      11.48000000      10.00000000
O       12.91500000       1.43500000      10.00000000
Mg      11.48000000       0.00000000      10.00000000
O       12.91500000       4.30500000      10.00000000
Mg      11.48000000       2.87000000      10.00000000
O       12.91500000       7.17500000      10.00000000
Mg      11.48000000       5.74000000      10.00000000
O       12.91500000      10.04500000      10.00000000
Mg      11.48000000       8.61000000      10.00000000
O       12.91500000      12.91500000      10.00000000
Mg      11.48000000      11.48000000      10.00000000
Fe       1.42672962       1.40951742      12.18394207
Fe       1.44021571       4.30376950      12.18702779
Fe       1.41567776       7.16462293      12.18362438
Fe       1.41389852      10.08787505      12.19026638
Fe       1.56480210      12.92351592      12.18462083
Fe       4.28920882       1.41937785      12.18103464
Fe       4.30547023       4.27264235      12.18066279
Fe       4.30907807       7.18774213      12.19254089
Fe       4.29439667      10.06357063      12.19109011
Fe       4.31256771      12.91633781      12.17901826
Fe       7.23644373       1.37248543      12.19092333
Fe       7.20038244       4.29972334      12.18808464
Fe       7.17703937       7.16649624      12.18594388
Fe       7.19160811      10.05011783      12.19111488
Fe       7.15907466      12.91494108      12.17411431
Fe      10.14341239       1.33293420      12.18456704
Fe      10.06075760       4.32418032      12.18418028
Fe      10.04994518       7.16805846      12.18060355
Fe      10.06625944      10.08572648      12.17884583
Fe       9.97998724      12.95372797      12.17557444
Fe      12.88478767       1.43999903      12.18247328
Fe      12.91118670       4.31107810      12.18582565
Fe      12.92220167       7.15718658      12.18155738
Fe      12.88363439      10.02288971      12.17466623
Fe      12.67907318      13.04228357      12.19657671
