75
Lattice="14.350000000000001 0.0 0.0 0.0 14.350000000000001 0.0 0.0 0.0 20.0" Properties=species:S:1:pos:R:3 generator=RattleGenerator uuid=dba98987-3594-458a-84b9-26100a115f3f model_energy=-407.05472006917853 uncertainty=9.301002427756421 acquisition_value=-425.6567249246914 time_stamp=7379.655695915222 search_iteration=20 relaxation_steps=100 relax_index=1 final=1 parent_search_iterations="_JSON [15]" parent_uuids="_JSON [\"89d2bd18-745f-4a68-8cdf-dff62b95bbb9\"]" spawn_uuids="_JSON [\"89d2bd18-745f-4a68-8cdf-dff62b95bbb9\"]" evaluator_energy="_JSON {\"20\": -404.06343980967256}" iteration=20 database_id=20 pbc="T T F"
O        1.43500000       1.43500000      10.00000000
Mg       0.00000000       0.00000000      10.00000000
O        1.43500000       4.30500000      10.00000000
Mg       0.00000000       2.87000000      10.00000000
O        1.43500000       7.17500000      10.00000000
Mg       0.00000000       5.74000000      10.00000000
O        1.43500000      10.04500000      10.00000000
Mg       0.00000000       8.61000000      10.00000000
O        1.43500000      12.91500000      10.00000000
Mg       0.00000000      11.48000000      10.00000000
O        4.30500000       1.43500000      10.00000000
Mg       2.87000000       0.00000000      10.00000000
O        4.30500000       4.30500000      10.00000000
Mg       2.87000000       2.87000000      10.00000000
O        4.30500000       7.17500000      10.00000000
Mg       2.87000000       5.74000000      10.00000000
O        4.30500000      10.04500000      10.00000000
Mg       2.87000000       8.61000000      10.00000000
O        4.30500000      12.91500000      10.00000000
Mg       2.87000000      11.48000000      10.00000000
O        7.17500000       1.43500000      10.00000000
Mg       5.74000000       0.00000000      10.00000000
O        7.17500000       4.30500000      10.00000000
Mg       5.74000000       2.87000000      10.00000000
O        7.17500000       7.17500000      10.00000000
Mg       5.74000000       5.74000000      10.00000000
O        7.17500000      10.04500000      10.00000000
Mg       5.74000000       8.61000000      10.00000000
O        7.17500000      12.91500000      10.00000000
Mg       5.74000000      11.48000000      10.00000000
O       10.04500000       1.43500000      10.00000000
Mg       8.61000000       0.00000000      10.00000000
O       10.04500000       4.30500000      10.00000000
Mg       8.61000000       2.87000000      10.00000000
O       10.04500000       7.17500000      10.00000000
Mg       8.61000000       5.74000000      10.00000000
O       10.04500000      10.04500000      10.00000000
Mg       8.61000000       8.61000000      10.00000000
O       10.04500000      12.91500000      10.00000000
Mg       8.61000000      11.48000000      10.00000000
O       12.91500000       1.43500000      10.00000000
Mg      11.48000000       0.00000000      10.00000000
O       12.91500000       4.30500000      10.00000000
Mg      11.48000000       2.87000000      10.00000000
O       12.91500000       7.17500000      10.00000000
Mg      11.48000000       5.74000000      10.00000000
O       12.91500000      10.04500000      10.00000000
Mg      11.48000000       8.61000000      10.00000000
O       12.91500000      12.91500000      10.00000000
Mg      11.48000000      11.48000000      10.00000000
Fe       1.43419128       1.43938663      13.05016308
Fe       1.43374851       4.30449131      13.05566311
Fe       1.43793514       7.17185165      13.05620918
Fe       1.44103352      10.04712542      13.05685328
Fe       1.43168283      12.90948138      13.05511569
Fe       4.30934230       1.43591318      13.05986491
Fe       4.30509348       4.32513252      13.04517965
Fe       4.30214700       7.17371156      13.05093348
Fe       4.28661211      10.06002735      13.06022304
Fe       4.30300509      12.91540687      13.04939396
Fe       7.18017423       1.44431131      13.05307722
Fe       7.16592022       4.32757307      13.06061281
Fe       7.15876787       7.23514993      13.08574156
Fe       7.17297826      10.04359667      13.05828429
Fe       7.16919265      12.93292247      13.06189461
Fe      10.04107213       1.44249634      13.06130802
Fe      10.05140554       4.31342099      13.06064157
Fe      10.04528606       7.18298302      13.05902852
Fe      10.05890139      10.06171007      13.05212238
Fe      10.05150597      12.91798371      13.05194911
Fe      12.90743990       1.44156168      13.05618544
Fe      12.91347514       4.30269310      13.06202333
Fe      12.91646191       7.18316922      13.06050475
Fe      12.91031495      10.04853330      13.05084646
Fe      12.91762388      12.91729396      13.05958920
