75
Lattice="14.350000000000001 0.0 0.0 0.0 14.350000000000001 0.0 0.0 0.0 20.0" Properties=species:S:1:pos:R:3 generator=HeteroStructRandomize uuid=e7bd60bd-2221-4b09-b053-93db9775d6ac model_energy=-406.74293823601215 uncertainty=10.855160523559654 acquisition_value=-428.45325928313144 time_stamp=2512.801159143448 search_iteration=11 relaxation_steps=40 relax_index=1 final=1 parent_search_iterations="_JSON []" parent_uuids="_JSON []" spawn_uuids="_JSON [\"e7bd60bd-2221-4b09-b053-93db9775d6ac\"]" evaluator_energy="_JSON {\"11\": -417.49916229627814}" iteration=11 database_id=11 pbc="T T F"
O        1.43500000       1.43500000      10.00000000
Mg       0.00000000       0.00000000      10.00000000
O        1.43500000       4.30500000      10.00000000
Mg       0.00000000       2.87000000      10.00000000
O        1.43500000       7.17500000      10.00000000
Mg       0.00000000       5.74000000      10.00000000
O        1.43500000      10.04500000      10.00000000
Mg       0.00000000       8.61000000      10.00000000
O        1.43500000      12.91500000      10.00000000
Mg       0.00000000      11.48000000      10.00000000
O        4.30500000       1.43500000      10.00000000
Mg       2.87000000       0.00000000      10.00000000
O        4.30500000       4.30500000      10.00000000
Mg       2.87000000       2.87000000      10.00000000
O        4.30500000       7.17500000      10.00000000
Mg       2.87000000       5.74000000      10.00000000
O        4.30500000      10.04500000      10.00000000
Mg       2.87000000       8.61000000      10.00000000
O        4.30500000      12.91500000      10.00000000
Mg       2.87000000      11.48000000      10.00000000
O        7.17500000       1.43500000      10.00000000
Mg       5.74000000       0.00000000      10.00000000
O        7.17500000       4.30500000      10.00000000
Mg       5.74000000       2.87000000      10.00000000
O        7.17500000       7.17500000      10.00000000
Mg       5.74000000       5.74000000      10.00000000
O        7.17500000      10.04500000      10.00000000
Mg       5.74000000       8.61000000      10.00000000
O        7.17500000      12.91500000      10.00000000
Mg       5.74000000      11.48000000      10.00000000
O       10.04500000       1.43500000      10.00000000
Mg       8.61000000       0.00000000      10.00000000
O       10.04500000       4.30500000      10.00000000
Mg       8.61000000       2.87000000      10.00000000
O       10.04500000       7.17500000      10.00000000
Mg       8.61000000       5.74000000      10.00000000
O       10.04500000      10.04500000      10.00000000
Mg       8.61000000       8.61000000      10.00000000
O       10.04500000      12.91500000      10.00000000
Mg       8.61000000      11.48000000      10.00000000
O       12.91500000       1.43500000      10.00000000
Mg      11.48000000       0.00000000      10.00000000
O       12.91500000       4.30500000      10.00000000
Mg      11.48000000       2.87000000      10.00000000
O       12.91500000       7.17500000      10.00000000
Mg      11.48000000       5.74000000      10.00000000
O       12.91500000      10.04500000      10.00000000
Mg      11.48000000       8.61000000      10.00000000
O       12.91500000      12.91500000      10.00000000
Mg      11.48000000      11.48000000      10.00000000
Fe       1.44048385       1.43253341      12.20651228
Fe       1.43312898       4.30745904      12.20730580
Fe       1.43148210       7.17159676      12.21091579
Fe       1.42516118      10.04810441      12.22220711
Fe       1.43260960      12.91523501      12.21323095
Fe       4.30355327       1.43720567      12.20767317
Fe       4.29975174       4.30633361      12.20619416
Fe       4.30252938       7.17435225      12.21222150
Fe       4.30400898      10.04858694      12.21544666
Fe       4.30150022      12.91507113      12.21103640
Fe       7.16753383       1.44227732      12.21663690
Fe       7.17294388       4.30551626      12.20680307
Fe       7.17331973       7.18047246      12.20448487
Fe       7.16687523      10.04997660      12.20757629
Fe       7.17252963      12.91645143      12.21512336
Fe      10.04770370       1.43205823      12.20957307
Fe      10.03747964       4.31053804      12.20769549
Fe      10.03673300       7.17634568      12.21238495
Fe      10.04031880      10.04332750      12.21104741
Fe      10.04600385      12.92066943      12.21371775
Fe      12.91803782       1.43837011      12.21616862
Fe      12.91033698       4.30112109      12.22003235
Fe      12.91558102       7.17876046      12.21736666
Fe      12.90821243      10.04262931      12.20720552
Fe      12.91563748      12.91165041      12.21031901
