75
Lattice="14.350000000000001 0.0 0.0 0.0 14.350000000000001 0.0 0.0 0.0 20.0" Properties=species:S:1:pos:R:3 generator=HeteroStructRandomize uuid=833f56fd-3d80-4d54-a6d1-db6f63cd52ca model_energy=-416.2155047858091 uncertainty=3.1598104198927897 acquisition_value=-422.5351256255947 time_stamp=10794.036360263824 search_iteration=21 relaxation_steps=28 relax_index=1 final=1 parent_search_iterations="_JSON []" parent_uuids="_JSON []" spawn_uuids="_JSON [\"833f56fd-3d80-4d54-a6d1-db6f63cd52ca\"]" evaluator_energy="_JSON {\"21\": -417.11612950666364}" iteration=21 database_id=21 pbc="T T F"
O        1.43500000       1.43500000      10.00000000
Mg       0.00000000       0.00000000      10.00000000
O        1.43500000       4.30500000      10.00000000
Mg       0.00000000       2.87000000      10.00000000
O        1.43500000       7.17500000      10.00000000
Mg       0.00000000       5.74000000      10.00000000
O        1.43500000      10.04500000      10.00000000
Mg       0.00000000       8.61000000      10.00000000
O        1.43500000      12.91500000      10.00000000
Mg       0.00000000      11.48000000      10.00000000
O        4.30500000       1.43500000      10.00000000
Mg       2.87000000       0.00000000      10.00000000
O        4.30500000       4.30500000      10.00000000
Mg       2.87000000       2.87000000      10.00000000
O        4.30500000       7.17500000      10.00000000
Mg       2.87000000       5.74000000      10.00000000
O        4.30500000      10.04500000      10.00000000
Mg       2.87000000       8.61000000      10.00000000
O        4.30500000      12.91500000      10.00000000
Mg       2.87000000      11.48000000      10.00000000
O        7.17500000       1.43500000      10.00000000
Mg       5.74000000       0.00000000      10.00000000
O        7.17500000       4.30500000      10.00000000
Mg       5.74000000       2.87000000      10.00000000
O        7.17500000       7.17500000      10.00000000
Mg       5.74000000       5.74000000      10.00000000
O        7.17500000      10.04500000      10.00000000
Mg       5.74000000       8.61000000      10.00000000
O        7.17500000      12.91500000      10.00000000
Mg       5.74000000      11.48000000      10.00000000
O       10.04500000       1.43500000      10.00000000
Mg       8.61000000       0.00000000      10.00000000
O       10.04500000       4.30500000      10.00000000
Mg       8.61000000       2.87000000      10.00000000
O       10.04500000       7.17500000      10.00000000
Mg       8.61000000       5.74000000      10.00000000
O       10.04500000      10.04500000      10.00000000
Mg       8.61000000       8.61000000      10.00000000
O       10.04500000      12.91500000      10.00000000
Mg       8.61000000      11.48000000      10.00000000
O       12.91500000       1.43500000      10.00000000
Mg      11.48000000       0.00000000      10.00000000
O       12.91500000       4.30500000      10.00000000
Mg      11.48000000       2.87000000      10.00000000
O       12.91500000       7.17500000      10.00000000
Mg      11.48000000       5.74000000      10.00000000
O       12.91500000      10.04500000      10.00000000
Mg      11.48000000       8.61000000      10.00000000
O       12.91500000      12.91500000      10.00000000
Mg      11.48000000      11.48000000      10.00000000
Fe       1.43533239       1.43220337      12.26869714
Fe       1.43405651       4.30544662      12.26587879
Fe       1.43396852       7.17535892      12.26575899
Fe       1.43352628      10.04295360      12.26611857
Fe       1.43134012      12.91349125      12.27297663
Fe       4.30547857       1.43464911      12.26634560
Fe       4.30578494       4.30663006      12.26957742
Fe       4.30563021       7.17203393      12.26518168
Fe       4.30603310      10.04601272      12.26687093
Fe       4.30034365      12.91511116      12.26745926
Fe       7.17702860       1.43391490      12.27339187
Fe       7.17478504       4.29967976      12.26665094
Fe       7.17229174       7.17839448      12.26607009
Fe       7.17265798      10.04152359      12.26656348
Fe       7.17785043      12.91611914      12.26674491
Fe      10.04431698       1.43190422      12.26834283
Fe      10.04362834       4.30678175      12.26714170
Fe      10.04274580       7.17581598      12.27067111
Fe      10.04345979      10.04462317      12.26531414
Fe      10.04390002      12.91268005      12.26888420
Fe      12.91435982       1.43738745      12.26561859
Fe      12.91359331       4.30365776      12.26952809
Fe      12.91345499       7.17401880      12.26581793
Fe      12.91344847      10.04597035      12.26559328
Fe      12.91766308      12.91565516      12.26850314
