75
Lattice="14.350000000000001 0.0 0.0 0.0 14.350000000000001 0.0 0.0 0.0 20.0" Properties=species:S:1:pos:R:3 generator=RattleGenerator uuid=f540e965-680a-4d2c-ba74-0ef03c3aca1e model_energy=-418.36088490312045 uncertainty=1.484150896533554 acquisition_value=-421.32918669618755 time_stamp=6401.08992433548 search_iteration=26 relaxation_steps=100 relax_index=1 final=1 parent_search_iterations="_JSON [10]" parent_uuids="_JSON [\"25a94c1a-8e8d-4c3c-897f-ec1754e90d8f\"]" spawn_uuids="_JSON [\"25a94c1a-8e8d-4c3c-897f-ec1754e90d8f\"]" evaluator_energy="_JSON {\"26\": -421.1855810260531}" iteration=26 database_id=26 pbc="T T F"
O        1.43500000       1.43500000      10.00000000
Mg       0.00000000       0.00000000      10.00000000
O        1.43500000       4.30500000      10.00000000
Mg       0.00000000       2.87000000      10.00000000
O        1.43500000       7.17500000      10.00000000
Mg       0.00000000       5.74000000      10.00000000
O        1.43500000      10.04500000      10.00000000
Mg       0.00000000       8.61000000      10.00000000
O        1.43500000      12.91500000      10.00000000
Mg       0.00000000      11.48000000      10.00000000
O        4.30500000       1.43500000      10.00000000
Mg       2.87000000       0.00000000      10.00000000
O        4.30500000       4.30500000      10.00000000
Mg       2.87000000       2.87000000      10.00000000
O        4.30500000       7.17500000      10.00000000
Mg       2.87000000       5.74000000      10.00000000
O        4.30500000      10.04500000      10.00000000
Mg       2.87000000       8.61000000      10.00000000
O        4.30500000      12.91500000      10.00000000
Mg       2.87000000      11.48000000      10.00000000
O        7.17500000       1.43500000      10.00000000
Mg       5.74000000       0.00000000      10.00000000
O        7.17500000       4.30500000      10.00000000
Mg       5.74000000       2.87000000      10.00000000
O        7.17500000       7.17500000      10.00000000
Mg       5.74000000       5.74000000      10.00000000
O        7.17500000      10.04500000      10.00000000
Mg       5.74000000       8.61000000      10.00000000
O        7.17500000      12.91500000      10.00000000
Mg       5.74000000      11.48000000      10.00000000
O       10.04500000       1.43500000      10.00000000
Mg       8.61000000       0.00000000      10.00000000
O       10.04500000       4.30500000      10.00000000
Mg       8.61000000       2.87000000      10.00000000
O       10.04500000       7.17500000      10.00000000
Mg       8.61000000       5.74000000      10.00000000
O       10.04500000      10.04500000      10.00000000
Mg       8.61000000       8.61000000      10.00000000
O       10.04500000      12.91500000      10.00000000
Mg       8.61000000      11.48000000      10.00000000
O       12.91500000       1.43500000      10.00000000
Mg      11.48000000       0.00000000      10.00000000
O       12.91500000       4.30500000      10.00000000
Mg      11.48000000       2.87000000      10.00000000
O       12.91500000       7.17500000      10.00000000
Mg      11.48000000       5.74000000      10.00000000
O       12.91500000      10.04500000      10.00000000
Mg      11.48000000       8.61000000      10.00000000
O       12.91500000      12.91500000      10.00000000
Mg      11.48000000      11.48000000      10.00000000
Fe       1.74680152       1.04415321      12.38876200
Fe       0.26733743       5.52712653      12.91265896
Fe       0.85720330       7.76146722      12.34641338
Fe       1.48780126      10.15573111      12.24673015
Fe       1.72875358      12.75282139      12.29082628
Fe       4.32089718       1.30235652      12.23448625
Fe       4.89967402       3.71277189      12.37043596
Fe       4.80607255       7.67536509      12.33391062
Fe       4.35131097      10.11242498      12.23595040
Fe       4.28397083      12.92083917      12.21072820
Fe       6.69824636       1.97088689      12.33811861
Fe       7.26953262       4.38260975      12.23248994
Fe       7.25420282       7.20445053      12.23300422
Fe       7.11189423       9.96585312      12.26638978
Fe       6.72543817      12.41220781      12.31089671
Fe      12.70860227       1.94426047      12.33267800
Fe       9.90233701       4.55819320      12.25377627
Fe      10.00692655       7.11126372      12.22484784
Fe       9.57935422       9.56141653      12.32337164
Fe       8.90263182      11.74080880      12.86120982
Fe      14.47682425       3.08808824      13.33146897
Fe      12.59946848       4.44694956      12.31700953
Fe      12.82478038       7.04928918      12.25192860
Fe      13.43192661       9.46775013      12.33507144
Fe      14.06886335      11.67422044      12.90427733
