75
Lattice="14.350000000000001 0.0 0.0 0.0 14.350000000000001 0.0 0.0 0.0 20.0" Properties=species:S:1:pos:R:3 generator=HeteroStructRandomize uuid=6393fa28-92d2-48cb-b4ae-d75d379f024d model_energy=-413.3831911329913 uncertainty=5.527349534626604 acquisition_value=-424.43789020224455 time_stamp=9276.979410648346 search_iteration=15 relaxation_steps=75 relax_index=1 final=1 parent_search_iterations="_JSON []" parent_uuids="_JSON []" spawn_uuids="_JSON [\"6393fa28-92d2-48cb-b4ae-d75d379f024d\"]" evaluator_energy="_JSON {\"15\": -414.07506994335705}" iteration=15 database_id=15 pbc="T T F"
O        1.43500000       1.43500000      10.00000000
Mg       0.00000000       0.00000000      10.00000000
O        1.43500000       4.30500000      10.00000000
Mg       0.00000000       2.87000000      10.00000000
O        1.43500000       7.17500000      10.00000000
Mg       0.00000000       5.74000000      10.00000000
O        1.43500000      10.04500000      10.00000000
Mg       0.00000000       8.61000000      10.00000000
O        1.43500000      12.91500000      10.00000000
Mg       0.00000000      11.48000000      10.00000000
O        4.30500000       1.43500000      10.00000000
Mg       2.87000000       0.00000000      10.00000000
O        4.30500000       4.30500000      10.00000000
Mg       2.87000000       2.87000000      10.00000000
O        4.30500000       7.17500000      10.00000000
Mg       2.87000000       5.74000000      10.00000000
O        4.30500000      10.04500000      10.00000000
Mg       2.87000000       8.61000000      10.00000000
O        4.30500000      12.91500000      10.00000000
Mg       2.87000000      11.48000000      10.00000000
O        7.17500000       1.43500000      10.00000000
Mg       5.74000000       0.00000000      10.00000000
O        7.17500000       4.30500000      10.00000000
Mg       5.74000000       2.87000000      10.00000000
O        7.17500000       7.17500000      10.00000000
Mg       5.74000000       5.74000000      10.00000000
O        7.17500000      10.04500000      10.00000000
Mg       5.74000000       8.61000000      10.00000000
O        7.17500000      12.91500000      10.00000000
Mg       5.74000000      11.48000000      10.00000000
O       10.04500000       1.43500000      10.00000000
Mg       8.61000000       0.00000000      10.00000000
O       10.04500000       4.30500000      10.00000000
Mg       8.61000000       2.87000000      10.00000000
O       10.04500000       7.17500000      10.00000000
Mg       8.61000000       5.74000000      10.00000000
O       10.04500000      10.04500000      10.00000000
Mg       8.61000000       8.61000000      10.00000000
O       10.04500000      12.91500000      10.00000000
Mg       8.61000000      11.48000000      10.00000000
O       12.91500000       1.43500000      10.00000000
Mg      11.48000000       0.00000000      10.00000000
O       12.91500000       4.30500000      10.00000000
Mg      11.48000000       2.87000000      10.00000000
O       12.91500000       7.17500000      10.00000000
Mg      11.48000000       5.74000000      10.00000000
O       12.91500000      10.04500000      10.00000000
Mg      11.48000000       8.61000000      10.00000000
O       12.91500000      12.91500000      10.00000000
Mg      11.48000000      11.48000000      10.00000000
Fe       1.16263772       1.70937540      12.22000414
Fe       1.74585419       4.60475564      12.21583279
Fe       1.18210810       7.44698404      12.22217482
Fe       1.19393773      10.33249501      12.22093348
Fe       1.74065733      13.22499594      12.21897839
Fe       4.00272508       1.11825568      12.21862773
Fe       4.60571663       3.98500496      12.21652102
Fe       4.00621329       6.84815630      12.21698692
Fe       4.06036658       9.74687475      12.21837383
Fe       4.59409515      12.60093797      12.21793788
Fe       6.86341481       1.73201991      12.21770618
Fe       7.44944964       4.57385823      12.22042969
Fe       6.88802495       7.42540859      12.21848496
Fe       6.86176948      10.35447968      12.21645854
Fe       7.44923315      13.17539141      12.22052966
Fe       9.76742146       1.66026811      12.22044461
Fe      10.32744126       4.53425081      12.21956213
Fe       9.74825171       7.36793554      12.22184210
Fe       9.78494796      10.27788151      12.22239622
Fe      10.32259840      13.14420080      12.22027397
Fe      12.64062529       1.70483837      12.21769492
Fe      13.19241026       4.56617773      12.21911248
Fe      12.63845787       7.42889668      12.22024687
Fe      12.65846183      10.33384884      12.21686062
Fe      13.18479137      13.17552679      12.21917633
