75
Lattice="14.350000000000001 0.0 0.0 0.0 14.350000000000001 0.0 0.0 0.0 20.0" Properties=species:S:1:pos:R:3 generator=HeteroStructRandomize uuid=ccc5f658-a96e-4c1e-aa01-e61912bc6da5 model_energy=-409.6817675369546 uncertainty=6.619915531281045 acquisition_value=-422.9215985995167 time_stamp=2988.725237607956 search_iteration=13 relaxation_steps=40 relax_index=1 final=1 parent_search_iterations="_JSON []" parent_uuids="_JSON []" spawn_uuids="_JSON [\"ccc5f658-a96e-4c1e-aa01-e61912bc6da5\"]" evaluator_energy="_JSON {\"13\": -417.59659095985046}" iteration=13 database_id=13 pbc="T T F"
O        1.43500000       1.43500000      10.00000000
Mg       0.00000000       0.00000000      10.00000000
O        1.43500000       4.30500000      10.00000000
Mg       0.00000000       2.87000000      10.00000000
O        1.43500000       7.17500000      10.00000000
Mg       0.00000000       5.74000000      10.00000000
O        1.43500000      10.04500000      10.00000000
Mg       0.00000000       8.61000000      10.00000000
O        1.43500000      12.91500000      10.00000000
Mg       0.00000000      11.48000000      10.00000000
O        4.30500000       1.43500000      10.00000000
Mg       2.87000000       0.00000000      10.00000000
O        4.30500000       4.30500000      10.00000000
Mg       2.87000000       2.87000000      10.00000000
O        4.30500000       7.17500000      10.00000000
Mg       2.87000000       5.74000000      10.00000000
O        4.30500000      10.04500000      10.00000000
Mg       2.87000000       8.61000000      10.00000000
O        4.30500000      12.91500000      10.00000000
Mg       2.87000000      11.48000000      10.00000000
O        7.17500000       1.43500000      10.00000000
Mg       5.74000000       0.00000000      10.00000000
O        7.17500000       4.30500000      10.00000000
Mg       5.74000000       2.87000000      10.00000000
O        7.17500000       7.17500000      10.00000000
Mg       5.74000000       5.74000000      10.00000000
O        7.17500000      10.04500000      10.00000000
Mg       5.74000000       8.61000000      10.00000000
O        7.17500000      12.91500000      10.00000000
Mg       5.74000000      11.48000000      10.00000000
O       10.04500000       1.43500000      10.00000000
Mg       8.61000000       0.00000000      10.00000000
O       10.04500000       4.30500000      10.00000000
Mg       8.61000000       2.87000000      10.00000000
O       10.04500000       7.17500000      10.00000000
Mg       8.61000000       5.74000000      10.00000000
O       10.04500000      10.04500000      10.00000000
Mg       8.61000000       8.61000000      10.00000000
O       10.04500000      12.91500000      10.00000000
Mg       8.61000000      11.48000000      10.00000000
O       12.91500000       1.43500000      10.00000000
Mg      11.48000000       0.00000000      10.00000000
O       12.91500000       4.30500000      10.00000000
Mg      11.48000000       2.87000000      10.00000000
O       12.91500000       7.17500000      10.00000000
Mg      11.48000000       5.74000000      10.00000000
O       12.91500000      10.04500000      10.00000000
Mg      11.48000000       8.61000000      10.00000000
O       12.91500000      12.91500000      10.00000000
Mg      11.48000000      11.48000000      10.00000000
Fe       1.41438562       1.44983199      12.14871711
Fe       1.44074484       4.28876372      12.16111743
Fe       1.43414763       7.19493313      12.15984046
Fe       1.43354341      10.04590638      12.15225239
Fe       1.42736199      12.91745739      12.15441388
Fe       4.31813252       1.41241047      12.15763338
Fe       4.29920188       4.31793148      12.15410864
Fe       4.31044505       7.17104197      12.15029821
Fe       4.30128079      10.03638326      12.15063879
Fe       4.31415152      12.91493699      12.15274214
Fe       7.16971898       1.41601903      12.15154715
Fe       7.17625595       4.32193138      12.15581055
Fe       7.17162072       7.16538264      12.14563107
Fe       7.17157068      10.05712235      12.15179951
Fe       7.17741118      12.93688994      12.15072094
Fe      10.04198723       1.44601691      12.14655189
Fe      10.05555018       4.29713295      12.14653129
Fe      10.04339628       7.16258687      12.15282465
Fe      10.04731462      10.06761417      12.15406403
Fe      10.01755131      12.90050116      12.14894932
Fe      12.93584189       1.45451782      12.15292988
Fe      12.90140978       4.29879886      12.15429417
Fe      12.90922981       7.17742386      12.14922727
Fe      12.91220569      10.05291719      12.15196723
Fe      12.94791885      12.87792045      12.15444113
