75
Lattice="14.350000000000001 0.0 0.0 0.0 14.350000000000001 0.0 0.0 0.0 20.0" Properties=species:S:1:pos:R:3 generator=RattleGenerator uuid=2a4dab03-2d6f-4c0e-a1e0-4efe574f7d16 model_energy=-414.42262070904604 uncertainty=3.644899511604494 acquisition_value=-421.71241973225506 time_stamp=6473.718595981598 search_iteration=20 relaxation_steps=100 relax_index=1 final=1 parent_search_iterations="_JSON [3]" parent_uuids="_JSON [\"7d812830-6cff-4155-b335-929b2852cad0\"]" spawn_uuids="_JSON [\"7d812830-6cff-4155-b335-929b2852cad0\"]" evaluator_energy="_JSON {\"20\": -416.0474813238808}" iteration=20 database_id=20 pbc="T T F"
O        1.43500000       1.43500000      10.00000000
Mg       0.00000000       0.00000000      10.00000000
O        1.43500000       4.30500000      10.00000000
Mg       0.00000000       2.87000000      10.00000000
O        1.43500000       7.17500000      10.00000000
Mg       0.00000000       5.74000000      10.00000000
O        1.43500000      10.04500000      10.00000000
Mg       0.00000000       8.61000000      10.00000000
O        1.43500000      12.91500000      10.00000000
Mg       0.00000000      11.48000000      10.00000000
O        4.30500000       1.43500000      10.00000000
Mg       2.87000000       0.00000000      10.00000000
O        4.30500000       4.30500000      10.00000000
Mg       2.87000000       2.87000000      10.00000000
O        4.30500000       7.17500000      10.00000000
Mg       2.87000000       5.74000000      10.00000000
O        4.30500000      10.04500000      10.00000000
Mg       2.87000000       8.61000000      10.00000000
O        4.30500000      12.91500000      10.00000000
Mg       2.87000000      11.48000000      10.00000000
O        7.17500000       1.43500000      10.00000000
Mg       5.74000000       0.00000000      10.00000000
O        7.17500000       4.30500000      10.00000000
Mg       5.74000000       2.87000000      10.00000000
O        7.17500000       7.17500000      10.00000000
Mg       5.74000000       5.74000000      10.00000000
O        7.17500000      10.04500000      10.00000000
Mg       5.74000000       8.61000000      10.00000000
O        7.17500000      12.91500000      10.00000000
Mg       5.74000000      11.48000000      10.00000000
O       10.04500000       1.43500000      10.00000000
Mg       8.61000000       0.00000000      10.00000000
O       10.04500000       4.30500000      10.00000000
Mg       8.61000000       2.87000000      10.00000000
O       10.04500000       7.17500000      10.00000000
Mg       8.61000000       5.74000000      10.00000000
O       10.04500000      10.04500000      10.00000000
Mg       8.61000000       8.61000000      10.00000000
O       10.04500000      12.91500000      10.00000000
Mg       8.61000000      11.48000000      10.00000000
O       12.91500000       1.43500000      10.00000000
Mg      11.48000000       0.00000000      10.00000000
O       12.91500000       4.30500000      10.00000000
Mg      11.48000000       2.87000000      10.00000000
O       12.91500000       7.17500000      10.00000000
Mg      11.48000000       5.74000000      10.00000000
O       12.91500000      10.04500000      10.00000000
Mg      11.48000000       8.61000000      10.00000000
O       12.91500000      12.91500000      10.00000000
Mg      11.48000000      11.48000000      10.00000000
Fe       1.96711402       1.21097912      12.53103604
Fe       2.04296875       4.86705431      12.51446421
Fe       1.41892173       7.15043604      12.29362137
Fe       0.95137940       9.50843380      12.52952215
Fe       1.29148989      13.30286516      12.49577804
Fe       4.29731028       1.88499660      12.48780770
Fe       4.36648520       4.35003422      12.33148310
Fe       3.74455438       6.68505889      12.51295165
Fe       4.56862276      10.32806740      12.50292582
Fe       4.86200106      12.66355849      12.52131890
Fe       6.61002173       1.07286444      12.52137306
Fe       6.76830937       4.68968201      12.52242917
Fe       7.43523986       6.94906281      12.48136453
Fe       6.86820744      10.65392466      12.52396285
Fe       7.19544416      13.05658111      12.34622022
Fe      10.23548625       1.04593242      12.50933800
Fe      10.41603674       4.76120952      12.53568106
Fe       9.79641433       7.10300383      12.43126706
Fe      10.39998774       9.46442902      12.53499426
Fe       9.59785008      13.14508638      12.51916653
Fe      12.58508900       1.10057495      12.52881637
Fe      12.76470124       4.81832876      12.52862445
Fe      13.38457082       7.16233996      12.48136420
Fe      12.84223303       9.50247537      12.50952899
Fe      13.30196991      13.20918469      12.53602130
