75
Lattice="14.350000000000001 0.0 0.0 0.0 14.350000000000001 0.0 0.0 0.0 20.0" Properties=species:S:1:pos:R:3 generator=HeteroStructRandomize uuid=d41590e0-8ad7-425e-99b3-100413e7725b model_energy=-415.3841129153624 uncertainty=3.8869889372392503 acquisition_value=-423.15809078984086 time_stamp=4371.463577032089 search_iteration=17 relaxation_steps=67 relax_index=1 final=1 parent_search_iterations="_JSON []" parent_uuids="_JSON []" spawn_uuids="_JSON [\"d41590e0-8ad7-425e-99b3-100413e7725b\"]" evaluator_energy="_JSON {\"17\": -414.9262737934925}" iteration=17 database_id=17 pbc="T T F"
O        1.43500000       1.43500000      10.00000000
Mg       0.00000000       0.00000000      10.00000000
O        1.43500000       4.30500000      10.00000000
Mg       0.00000000       2.87000000      10.00000000
O        1.43500000       7.17500000      10.00000000
Mg       0.00000000       5.74000000      10.00000000
O        1.43500000      10.04500000      10.00000000
Mg       0.00000000       8.61000000      10.00000000
O        1.43500000      12.91500000      10.00000000
Mg       0.00000000      11.48000000      10.00000000
O        4.30500000       1.43500000      10.00000000
Mg       2.87000000       0.00000000      10.00000000
O        4.30500000       4.30500000      10.00000000
Mg       2.87000000       2.87000000      10.00000000
O        4.30500000       7.17500000      10.00000000
Mg       2.87000000       5.74000000      10.00000000
O        4.30500000      10.04500000      10.00000000
Mg       2.87000000       8.61000000      10.00000000
O        4.30500000      12.91500000      10.00000000
Mg       2.87000000      11.48000000      10.00000000
O        7.17500000       1.43500000      10.00000000
Mg       5.74000000       0.00000000      10.00000000
O        7.17500000       4.30500000      10.00000000
Mg       5.74000000       2.87000000      10.00000000
O        7.17500000       7.17500000      10.00000000
Mg       5.74000000       5.74000000      10.00000000
O        7.17500000      10.04500000      10.00000000
Mg       5.74000000       8.61000000      10.00000000
O        7.17500000      12.91500000      10.00000000
Mg       5.74000000      11.48000000      10.00000000
O       10.04500000       1.43500000      10.00000000
Mg       8.61000000       0.00000000      10.00000000
O       10.04500000       4.30500000      10.00000000
Mg       8.61000000       2.87000000      10.00000000
O       10.04500000       7.17500000      10.00000000
Mg       8.61000000       5.74000000      10.00000000
O       10.04500000      10.04500000      10.00000000
Mg       8.61000000       8.61000000      10.00000000
O       10.04500000      12.91500000      10.00000000
Mg       8.61000000      11.48000000      10.00000000
O       12.91500000       1.43500000      10.00000000
Mg      11.48000000       0.00000000      10.00000000
O       12.91500000       4.30500000      10.00000000
Mg      11.48000000       2.87000000      10.00000000
O       12.91500000       7.17500000      10.00000000
Mg      11.48000000       5.74000000      10.00000000
O       12.91500000      10.04500000      10.00000000
Mg      11.48000000       8.61000000      10.00000000
O       12.91500000      12.91500000      10.00000000
Mg      11.48000000      11.48000000      10.00000000
Fe       1.20169252       1.65082471      12.19164278
Fe       1.36035734       4.53190667      12.20395551
Fe       1.63848589       7.40277476      12.19346054
Fe       1.15784682      10.28897283      12.18126987
Fe       1.66349847      13.11519372      12.19276340
Fe       4.11937258       1.63120108      12.20202446
Fe       4.27974626       4.56139251      12.20486065
Fe       4.54957154       7.42522046      12.18254865
Fe       4.05550743      10.23425350      12.19382673
Fe       4.56865663      13.13100891      12.18583327
Fe       6.98395128       1.15426162      12.18921204
Fe       7.17366385       4.02677466      12.20152127
Fe       7.36721006       6.92214935      12.19036770
Fe       6.94229474       9.79440885      12.18808455
Fe       7.41942179      12.65736433      12.18064544
Fe       9.86276930       1.69351104      12.19197157
Fe       9.99489021       4.58656328      12.20105521
Fe      10.25227620       7.44844859      12.18304655
Fe       9.80733372      10.31205144      12.18468314
Fe      10.26834588      13.16779905      12.18286435
Fe      12.69118882       1.15433011      12.18715342
Fe      12.90763342       4.03102183      12.20200203
Fe      13.09466477       6.91753922      12.19443538
Fe      12.66774989       9.78682238      12.18264411
Fe      13.13544366      12.65869901      12.18319121
