75
Lattice="14.350000000000001 0.0 0.0 0.0 14.350000000000001 0.0 0.0 0.0 20.0" Properties=species:S:1:pos:R:3 generator=HeteroStructRandomize uuid=5f30f74f-856d-4684-959c-8f5bef3985b6 model_energy=-414.3777315745204 uncertainty=5.205665954930707 acquisition_value=-424.7890634843818 time_stamp=6161.8845274448395 search_iteration=17 relaxation_steps=29 relax_index=1 final=1 parent_search_iterations="_JSON []" parent_uuids="_JSON []" spawn_uuids="_JSON [\"5f30f74f-856d-4684-959c-8f5bef3985b6\"]" evaluator_energy="_JSON {\"17\": -417.3715085772817}" iteration=17 database_id=17 pbc="T T F"
O        1.43500000       1.43500000      10.00000000
Mg       0.00000000       0.00000000      10.00000000
O        1.43500000       4.30500000      10.00000000
Mg       0.00000000       2.87000000      10.00000000
O        1.43500000       7.17500000      10.00000000
Mg       0.00000000       5.74000000      10.00000000
O        1.43500000      10.04500000      10.00000000
Mg       0.00000000       8.61000000      10.00000000
O        1.43500000      12.91500000      10.00000000
Mg       0.00000000      11.48000000      10.00000000
O        4.30500000       1.43500000      10.00000000
Mg       2.87000000       0.00000000      10.00000000
O        4.30500000       4.30500000      10.00000000
Mg       2.87000000       2.87000000      10.00000000
O        4.30500000       7.17500000      10.00000000
Mg       2.87000000       5.74000000      10.00000000
O        4.30500000      10.04500000      10.00000000
Mg       2.87000000       8.61000000      10.00000000
O        4.30500000      12.91500000      10.00000000
Mg       2.87000000      11.48000000      10.00000000
O        7.17500000       1.43500000      10.00000000
Mg       5.74000000       0.00000000      10.00000000
O        7.17500000       4.30500000      10.00000000
Mg       5.74000000       2.87000000      10.00000000
O        7.17500000       7.17500000      10.00000000
Mg       5.74000000       5.74000000      10.00000000
O        7.17500000      10.04500000      10.00000000
Mg       5.74000000       8.61000000      10.00000000
O        7.17500000      12.91500000      10.00000000
Mg       5.74000000      11.48000000      10.00000000
O       10.04500000       1.43500000      10.00000000
Mg       8.61000000       0.00000000      10.00000000
O       10.04500000       4.30500000      10.00000000
Mg       8.61000000       2.87000000      10.00000000
O       10.04500000       7.17500000      10.00000000
Mg       8.61000000       5.74000000      10.00000000
O       10.04500000      10.04500000      10.00000000
Mg       8.61000000       8.61000000      10.00000000
O       10.04500000      12.91500000      10.00000000
Mg       8.61000000      11.48000000      10.00000000
O       12.91500000       1.43500000      10.00000000
Mg      11.48000000       0.00000000      10.00000000
O       12.91500000       4.30500000      10.00000000
Mg      11.48000000       2.87000000      10.00000000
O       12.91500000       7.17500000      10.00000000
Mg      11.48000000       5.74000000      10.00000000
O       12.91500000      10.04500000      10.00000000
Mg      11.48000000       8.61000000      10.00000000
O       12.91500000      12.91500000      10.00000000
Mg      11.48000000      11.48000000      10.00000000
Fe       1.43229618       1.43486147      12.10658303
Fe       1.43564154       4.30215540      12.10691255
Fe       1.43602906       7.17603865      12.10501746
Fe       1.43410025      10.04456993      12.10876662
Fe       1.43483610      12.91433513      12.10772930
Fe       4.30358111       1.43602792      12.10552628
Fe       4.30482537       4.30358715      12.10481389
Fe       4.30201661       7.17625442      12.10682821
Fe       4.30670244      10.04552642      12.10702894
Fe       4.30324672      12.91508952      12.10843532
Fe       7.17321206       1.43153735      12.10755794
Fe       7.17509284       4.30464796      12.10527136
Fe       7.17524826       7.17687992      12.10585185
Fe       7.17442592      10.04566071      12.10570472
Fe       7.17718292      12.91607837      12.10496110
Fe      10.04494082       1.43629117      12.10299899
Fe      10.04735367       4.30585608      12.10433223
Fe      10.04569073       7.17676435      12.10433019
Fe      10.04581599      10.04442765      12.10481595
Fe      10.04588078      12.91541527      12.10536280
Fe      12.91496128       1.43377851      12.10622345
Fe      12.91430493       4.30577109      12.10672328
Fe      12.91514912       7.17232790      12.10808070
Fe      12.91595881      10.04704601      12.10590211
Fe      12.91414138      12.91461262      12.10538071
