75
Lattice="14.350000000000001 0.0 0.0 0.0 14.350000000000001 0.0 0.0 0.0 20.0" Properties=species:S:1:pos:R:3 generator=RattleGenerator uuid=0b808a53-eab9-493d-b380-3acb8f0b017e model_energy=-419.3017105104346 uncertainty=0.7256748902763155 acquisition_value=-420.7530602909872 time_stamp=9167.6781873703 search_iteration=27 relaxation_steps=100 relax_index=1 final=1 parent_search_iterations="_JSON [18]" parent_uuids="_JSON [\"93ffccaa-7c5e-4349-a6b0-464f1151c194\"]" spawn_uuids="_JSON [\"93ffccaa-7c5e-4349-a6b0-464f1151c194\"]" evaluator_energy="_JSON {\"27\": -418.3414826775538}" iteration=27 database_id=27 pbc="T T F"
O        1.43500000       1.43500000      10.00000000
Mg       0.00000000       0.00000000      10.00000000
O        1.43500000       4.30500000      10.00000000
Mg       0.00000000       2.87000000      10.00000000
O        1.43500000       7.17500000      10.00000000
Mg       0.00000000       5.74000000      10.00000000
O        1.43500000      10.04500000      10.00000000
Mg       0.00000000       8.61000000      10.00000000
O        1.43500000      12.91500000      10.00000000
Mg       0.00000000      11.48000000      10.00000000
O        4.30500000       1.43500000      10.00000000
Mg       2.87000000       0.00000000      10.00000000
O        4.30500000       4.30500000      10.00000000
Mg       2.87000000       2.87000000      10.00000000
O        4.30500000       7.17500000      10.00000000
Mg       2.87000000       5.74000000      10.00000000
O        4.30500000      10.04500000      10.00000000
Mg       2.87000000       8.61000000      10.00000000
O        4.30500000      12.91500000      10.00000000
Mg       2.87000000      11.48000000      10.00000000
O        7.17500000       1.43500000      10.00000000
Mg       5.74000000       0.00000000      10.00000000
O        7.17500000       4.30500000      10.00000000
Mg       5.74000000       2.87000000      10.00000000
O        7.17500000       7.17500000      10.00000000
Mg       5.74000000       5.74000000      10.00000000
O        7.17500000      10.04500000      10.00000000
Mg       5.74000000       8.61000000      10.00000000
O        7.17500000      12.91500000      10.00000000
Mg       5.74000000      11.48000000      10.00000000
O       10.04500000       1.43500000      10.00000000
Mg       8.61000000       0.00000000      10.00000000
O       10.04500000       4.30500000      10.00000000
Mg       8.61000000       2.87000000      10.00000000
O       10.04500000       7.17500000      10.00000000
Mg       8.61000000       5.74000000      10.00000000
O       10.04500000      10.04500000      10.00000000
Mg       8.61000000       8.61000000      10.00000000
O       10.04500000      12.91500000      10.00000000
Mg       8.61000000      11.48000000      10.00000000
O       12.91500000       1.43500000      10.00000000
Mg      11.48000000       0.00000000      10.00000000
O       12.91500000       4.30500000      10.00000000
Mg      11.48000000       2.87000000      10.00000000
O       12.91500000       7.17500000      10.00000000
Mg      11.48000000       5.74000000      10.00000000
O       12.91500000      10.04500000      10.00000000
Mg      11.48000000       8.61000000      10.00000000
O       12.91500000      12.91500000      10.00000000
Mg      11.48000000      11.48000000      10.00000000
Fe       1.74986941       1.47237313      12.18097907
Fe       1.30687195       3.98792658      12.19893331
Fe       1.33005026       7.46811130      12.30210395
Fe       1.62485860       9.83776898      12.18846512
Fe       1.12682078      13.37800671      12.27440125
Fe       4.23013450       1.47341153      12.14010721
Fe       3.66059703       3.73362365      12.39563747
Fe       2.81896071       8.65691417      13.86462687
Fe       4.07131338       9.95030391      12.23596292
Fe       3.54998511      13.59502870      12.42942833
Fe       7.23576295       1.12859695      12.19311011
Fe       7.96440287       5.03468898      12.42369524
Fe       7.47382178       7.35874155      12.20522467
Fe       6.94605862      10.05814052      12.19815780
Fe       7.48063656      12.97177483      12.20164542
Fe       9.69447871       1.41140552      12.21010364
Fe      10.26624124       4.38254580      12.15989299
Fe       9.92979649       6.85248324      12.19444433
Fe      10.78899877       9.12467082      12.43389224
Fe       9.95231946      13.25566913      12.20930108
Fe      13.76163066       0.75837028      12.42895431
Fe      12.78608047       4.49348326      12.18127955
Fe      12.61614609       7.41093836      12.23169720
Fe      13.06727492       9.86492114      12.18082371
Fe      12.94300173      12.85477778      12.16361040
