75
Lattice="14.350000000000001 0.0 0.0 0.0 14.350000000000001 0.0 0.0 0.0 20.0" Properties=species:S:1:pos:R:3 generator=HeteroStructRandomize uuid=1de188ca-645a-40c8-9da8-6399fda44703 model_energy=-406.7724999634993 uncertainty=8.968745292850993 acquisition_value=-424.7099905492013 time_stamp=3873.751462459564 search_iteration=15 relaxation_steps=28 relax_index=1 final=1 parent_search_iterations="_JSON []" parent_uuids="_JSON []" spawn_uuids="_JSON [\"1de188ca-645a-40c8-9da8-6399fda44703\"]" evaluator_energy="_JSON {\"15\": -410.8299286218972}" iteration=15 database_id=15 pbc="T T F"
O        1.43500000       1.43500000      10.00000000
Mg       0.00000000       0.00000000      10.00000000
O        1.43500000       4.30500000      10.00000000
Mg       0.00000000       2.87000000      10.00000000
O        1.43500000       7.17500000      10.00000000
Mg       0.00000000       5.74000000      10.00000000
O        1.43500000      10.04500000      10.00000000
Mg       0.00000000       8.61000000      10.00000000
O        1.43500000      12.91500000      10.00000000
Mg       0.00000000      11.48000000      10.00000000
O        4.30500000       1.43500000      10.00000000
Mg       2.87000000       0.00000000      10.00000000
O        4.30500000       4.30500000      10.00000000
Mg       2.87000000       2.87000000      10.00000000
O        4.30500000       7.17500000      10.00000000
Mg       2.87000000       5.74000000      10.00000000
O        4.30500000      10.04500000      10.00000000
Mg       2.87000000       8.61000000      10.00000000
O        4.30500000      12.91500000      10.00000000
Mg       2.87000000      11.48000000      10.00000000
O        7.17500000       1.43500000      10.00000000
Mg       5.74000000       0.00000000      10.00000000
O        7.17500000       4.30500000      10.00000000
Mg       5.74000000       2.87000000      10.00000000
O        7.17500000       7.17500000      10.00000000
Mg       5.74000000       5.74000000      10.00000000
O        7.17500000      10.04500000      10.00000000
Mg       5.74000000       8.61000000      10.00000000
O        7.17500000      12.91500000      10.00000000
Mg       5.74000000      11.48000000      10.00000000
O       10.04500000       1.43500000      10.00000000
Mg       8.61000000       0.00000000      10.00000000
O       10.04500000       4.30500000      10.00000000
Mg       8.61000000       2.87000000      10.00000000
O       10.04500000       7.17500000      10.00000000
Mg       8.61000000       5.74000000      10.00000000
O       10.04500000      10.04500000      10.00000000
Mg       8.61000000       8.61000000      10.00000000
O       10.04500000      12.91500000      10.00000000
Mg       8.61000000      11.48000000      10.00000000
O       12.91500000       1.43500000      10.00000000
Mg      11.48000000       0.00000000      10.00000000
O       12.91500000       4.30500000      10.00000000
Mg      11.48000000       2.87000000      10.00000000
O       12.91500000       7.17500000      10.00000000
Mg      11.48000000       5.74000000      10.00000000
O       12.91500000      10.04500000      10.00000000
Mg      11.48000000       8.61000000      10.00000000
O       12.91500000      12.91500000      10.00000000
Mg      11.48000000      11.48000000      10.00000000
Fe       1.44103600       1.44786414      12.65774910
Fe       1.43462838       4.31398729      12.65964058
Fe       1.43487157       7.18711536      12.65827697
Fe       1.45076968      10.06298507      12.66393087
Fe       1.43322455      12.92272960      12.66363247
Fe       4.30825428       1.44180057      12.66230279
Fe       4.31419812       4.30844215      12.65948282
Fe       4.31105511       7.19723559      12.66404281
Fe       4.31295814      10.05671966      12.66838501
Fe       4.31360061      12.93228012      12.66063943
Fe       7.17881155       1.42997647      12.66723713
Fe       7.17706461       4.29696570      12.65901393
Fe       7.17129897       7.17215437      12.65832750
Fe       7.19239096      10.03776456      12.66091296
Fe       7.17834683      12.91050444      12.65943926
Fe      10.05096007       1.44019289      12.65913646
Fe      10.04302512       4.30578356      12.65944083
Fe      10.04449886       7.17720458      12.66119239
Fe      10.04738053      10.04262140      12.66170401
Fe      10.04649815      12.92328597      12.65673914
Fe      12.92311841       1.44226372      12.66329094
Fe      12.91346680       4.31906541      12.65937013
Fe      12.91679330       7.17977990      12.65776818
Fe      12.91759576      10.05613341      12.66446852
Fe      12.91639053      12.92360301      12.66268983
