75
Lattice="14.350000000000001 0.0 0.0 0.0 14.350000000000001 0.0 0.0 0.0 20.0" Properties=species:S:1:pos:R:3 generator=HeteroStructRandomize uuid=168e161d-f960-402a-85a2-87dec51cbd1e model_energy=-417.52500659728287 uncertainty=1.1776345640499362 acquisition_value=-419.8802757253827 time_stamp=10191.720992326736 search_iteration=22 relaxation_steps=53 relax_index=1 final=1 parent_search_iterations="_JSON []" parent_uuids="_JSON []" spawn_uuids="_JSON [\"168e161d-f960-402a-85a2-87dec51cbd1e\"]" evaluator_energy="_JSON {\"22\": -418.1306705238767}" iteration=22 database_id=22 pbc="T T F"
O        1.43500000       1.43500000      10.00000000
Mg       0.00000000       0.00000000      10.00000000
O        1.43500000       4.30500000      10.00000000
Mg       0.00000000       2.87000000      10.00000000
O        1.43500000       7.17500000      10.00000000
Mg       0.00000000       5.74000000      10.00000000
O        1.43500000      10.04500000      10.00000000
Mg       0.00000000       8.61000000      10.00000000
O        1.43500000      12.91500000      10.00000000
Mg       0.00000000      11.48000000      10.00000000
O        4.30500000       1.43500000      10.00000000
Mg       2.87000000       0.00000000      10.00000000
O        4.30500000       4.30500000      10.00000000
Mg       2.87000000       2.87000000      10.00000000
O        4.30500000       7.17500000      10.00000000
Mg       2.87000000       5.74000000      10.00000000
O        4.30500000      10.04500000      10.00000000
Mg       2.87000000       8.61000000      10.00000000
O        4.30500000      12.91500000      10.00000000
Mg       2.87000000      11.48000000      10.00000000
O        7.17500000       1.43500000      10.00000000
Mg       5.74000000       0.00000000      10.00000000
O        7.17500000       4.30500000      10.00000000
Mg       5.74000000       2.87000000      10.00000000
O        7.17500000       7.17500000      10.00000000
Mg       5.74000000       5.74000000      10.00000000
O        7.17500000      10.04500000      10.00000000
Mg       5.74000000       8.61000000      10.00000000
O        7.17500000      12.91500000      10.00000000
Mg       5.74000000      11.48000000      10.00000000
O       10.04500000       1.43500000      10.00000000
Mg       8.61000000       0.00000000      10.00000000
O       10.04500000       4.30500000      10.00000000
Mg       8.61000000       2.87000000      10.00000000
O       10.04500000       7.17500000      10.00000000
Mg       8.61000000       5.74000000      10.00000000
O       10.04500000      10.04500000      10.00000000
Mg       8.61000000       8.61000000      10.00000000
O       10.04500000      12.91500000      10.00000000
Mg       8.61000000      11.48000000      10.00000000
O       12.91500000       1.43500000      10.00000000
Mg      11.48000000       0.00000000      10.00000000
O       12.91500000       4.30500000      10.00000000
Mg      11.48000000       2.87000000      10.00000000
O       12.91500000       7.17500000      10.00000000
Mg      11.48000000       5.74000000      10.00000000
O       12.91500000      10.04500000      10.00000000
Mg      11.48000000       8.61000000      10.00000000
O       12.91500000      12.91500000      10.00000000
Mg      11.48000000      11.48000000      10.00000000
Fe       1.28944749       1.56990828      12.19074972
Fe       1.23170780       4.11220732      12.19188080
Fe       1.61034065       7.16072606      12.20453191
Fe       1.32325608      10.24775533      12.19156113
Fe       1.59645334      12.76857104      12.19064601
Fe       4.45544159       1.60881842      12.19575807
Fe       4.23721599       4.13575430      12.20275100
Fe       4.14061749       7.22025911      12.20263766
Fe       4.48215970      10.22415167      12.19196506
Fe       4.17785626      12.75061835      12.19368381
Fe       7.02973805       1.66102389      12.19192620
Fe       7.34083454       4.16666191      12.19141161
Fe       7.30553038       7.36033577      12.19368356
Fe       7.00290633       9.88235244      12.18833394
Fe       7.30118534      12.92147750      12.20288361
Fe      10.04410926       1.39972444      12.21652553
Fe       9.86322834       4.48594944      12.19307481
Fe       9.82736267       7.03080308      12.19194754
Fe      10.03185895      10.17111490      12.20185553
Fe       9.80755726      12.66268124      12.19785018
Fe      13.13528671       1.25202625      12.19308126
Fe      13.05532354       4.42823082      12.19160833
Fe      12.91312760       6.93263302      12.20648228
Fe      13.17099421      10.04231866      12.20731458
Fe      12.92309662      13.08822173      12.20351939
