75
Lattice="14.350000000000001 0.0 0.0 0.0 14.350000000000001 0.0 0.0 0.0 20.0" Properties=species:S:1:pos:R:3 generator=HeteroStructRandomize uuid=043111d7-d340-45c7-8b6b-b665874149f8 model_energy=-404.32724680556305 uncertainty=9.548430752454554 acquisition_value=-423.42410831047215 time_stamp=2734.51016998291 search_iteration=11 relaxation_steps=63 relax_index=1 final=1 parent_search_iterations="_JSON []" parent_uuids="_JSON []" spawn_uuids="_JSON [\"043111d7-d340-45c7-8b6b-b665874149f8\"]" evaluator_energy="_JSON {\"11\": -417.6042448169286}" iteration=11 database_id=11 pbc="T T F"
O        1.43500000       1.43500000      10.00000000
Mg       0.00000000       0.00000000      10.00000000
O        1.43500000       4.30500000      10.00000000
Mg       0.00000000       2.87000000      10.00000000
O        1.43500000       7.17500000      10.00000000
Mg       0.00000000       5.74000000      10.00000000
O        1.43500000      10.04500000      10.00000000
Mg       0.00000000       8.61000000      10.00000000
O        1.43500000      12.91500000      10.00000000
Mg       0.00000000      11.48000000      10.00000000
O        4.30500000       1.43500000      10.00000000
Mg       2.87000000       0.00000000      10.00000000
O        4.30500000       4.30500000      10.00000000
Mg       2.87000000       2.87000000      10.00000000
O        4.30500000       7.17500000      10.00000000
Mg       2.87000000       5.74000000      10.00000000
O        4.30500000      10.04500000      10.00000000
Mg       2.87000000       8.61000000      10.00000000
O        4.30500000      12.91500000      10.00000000
Mg       2.87000000      11.48000000      10.00000000
O        7.17500000       1.43500000      10.00000000
Mg       5.74000000       0.00000000      10.00000000
O        7.17500000       4.30500000      10.00000000
Mg       5.74000000       2.87000000      10.00000000
O        7.17500000       7.17500000      10.00000000
Mg       5.74000000       5.74000000      10.00000000
O        7.17500000      10.04500000      10.00000000
Mg       5.74000000       8.61000000      10.00000000
O        7.17500000      12.91500000      10.00000000
Mg       5.74000000      11.48000000      10.00000000
O       10.04500000       1.43500000      10.00000000
Mg       8.61000000       0.00000000      10.00000000
O       10.04500000       4.30500000      10.00000000
Mg       8.61000000       2.87000000      10.00000000
O       10.04500000       7.17500000      10.00000000
Mg       8.61000000       5.74000000      10.00000000
O       10.04500000      10.04500000      10.00000000
Mg       8.61000000       8.61000000      10.00000000
O       10.04500000      12.91500000      10.00000000
Mg       8.61000000      11.48000000      10.00000000
O       12.91500000       1.43500000      10.00000000
Mg      11.48000000       0.00000000      10.00000000
O       12.91500000       4.30500000      10.00000000
Mg      11.48000000       2.87000000      10.00000000
O       12.91500000       7.17500000      10.00000000
Mg      11.48000000       5.74000000      10.00000000
O       12.91500000      10.04500000      10.00000000
Mg      11.48000000       8.61000000      10.00000000
O       12.91500000      12.91500000      10.00000000
Mg      11.48000000      11.48000000      10.00000000
Fe       1.42198324       1.47798745      12.15776906
Fe       1.39386756       4.34172277      12.16285836
Fe       1.41761999       7.15038031      12.14190673
Fe       1.42445148       9.99395819      12.14627687
Fe       1.42462056      12.87381301      12.16923784
Fe       4.26302969       1.47025087      12.17404608
Fe       4.31597408       4.27019333      12.16691196
Fe       4.30244165       7.16883635      12.16261953
Fe       4.27851542      10.02511033      12.17016055
Fe       4.22817366      12.87346898      12.24657757
Fe       7.15428081       1.40566113      12.16761741
Fe       7.20678024       4.27110705      12.18396454
Fe       7.20496460       7.16739032      12.16063186
Fe       7.15499782      10.06803196      12.15857253
Fe       7.15995139      12.88780466      12.17291719
Fe      10.05506684       1.41965749      12.16271790
Fe      10.03489350       4.29699322      12.16566842
Fe      10.02143465       7.18871312      12.16052520
Fe      10.01412960      10.09687839      12.15698022
Fe      10.07553015      12.87252103      12.16227188
Fe      12.89146739       1.40108328      12.16520764
Fe      12.89218679       4.29603291      12.23510967
Fe      12.90859460       7.24194228      12.15525288
Fe      12.92732387       9.93780013      12.13392421
Fe      12.95442491      12.90657185      12.15165924
