75
Lattice="14.350000000000001 0.0 0.0 0.0 14.350000000000001 0.0 0.0 0.0 20.0" Properties=species:S:1:pos:R:3 generator=RattleGenerator uuid=c7444ada-89e0-4c85-b6e4-e622ef368292 model_energy=-419.7409028012741 uncertainty=1.0331048787561619 acquisition_value=-421.8071125587864 time_stamp=10325.852125883102 search_iteration=32 relaxation_steps=79 relax_index=1 final=1 parent_search_iterations="_JSON [4]" parent_uuids="_JSON [\"23ad2710-4287-4bb2-bbfd-7e93aead8ab4\"]" spawn_uuids="_JSON [\"23ad2710-4287-4bb2-bbfd-7e93aead8ab4\"]" evaluator_energy="_JSON {\"32\": -418.93846401188785}" iteration=32 database_id=32 pbc="T T F"
O        1.43500000       1.43500000      10.00000000
Mg       0.00000000       0.00000000      10.00000000
O        1.43500000       4.30500000      10.00000000
Mg       0.00000000       2.87000000      10.00000000
O        1.43500000       7.17500000      10.00000000
Mg       0.00000000       5.74000000      10.00000000
O        1.43500000      10.04500000      10.00000000
Mg       0.00000000       8.61000000      10.00000000
O        1.43500000      12.91500000      10.00000000
Mg       0.00000000      11.48000000      10.00000000
O        4.30500000       1.43500000      10.00000000
Mg       2.87000000       0.00000000      10.00000000
O        4.30500000       4.30500000      10.00000000
Mg       2.87000000       2.87000000      10.00000000
O        4.30500000       7.17500000      10.00000000
Mg       2.87000000       5.74000000      10.00000000
O        4.30500000      10.04500000      10.00000000
Mg       2.87000000       8.61000000      10.00000000
O        4.30500000      12.91500000      10.00000000
Mg       2.87000000      11.48000000      10.00000000
O        7.17500000       1.43500000      10.00000000
Mg       5.74000000       0.00000000      10.00000000
O        7.17500000       4.30500000      10.00000000
Mg       5.74000000       2.87000000      10.00000000
O        7.17500000       7.17500000      10.00000000
Mg       5.74000000       5.74000000      10.00000000
O        7.17500000      10.04500000      10.00000000
Mg       5.74000000       8.61000000      10.00000000
O        7.17500000      12.91500000      10.00000000
Mg       5.74000000      11.48000000      10.00000000
O       10.04500000       1.43500000      10.00000000
Mg       8.61000000       0.00000000      10.00000000
O       10.04500000       4.30500000      10.00000000
Mg       8.61000000       2.87000000      10.00000000
O       10.04500000       7.17500000      10.00000000
Mg       8.61000000       5.74000000      10.00000000
O       10.04500000      10.04500000      10.00000000
Mg       8.61000000       8.61000000      10.00000000
O       10.04500000      12.91500000      10.00000000
Mg       8.61000000      11.48000000      10.00000000
O       12.91500000       1.43500000      10.00000000
Mg      11.48000000       0.00000000      10.00000000
O       12.91500000       4.30500000      10.00000000
Mg      11.48000000       2.87000000      10.00000000
O       12.91500000       7.17500000      10.00000000
Mg      11.48000000       5.74000000      10.00000000
O       12.91500000      10.04500000      10.00000000
Mg      11.48000000       8.61000000      10.00000000
O       12.91500000      12.91500000      10.00000000
Mg      11.48000000      11.48000000      10.00000000
Fe       1.62195153       1.28679187      12.24995970
Fe       2.32692678       3.55507796      12.66890095
Fe       2.28212429       9.11800280      12.68059711
Fe       0.52363992      10.80499303      12.65297178
Fe       1.16255654      13.10421019      12.27843561
Fe       4.05062869       1.83449781      12.26984763
Fe       4.64649606       4.18505765      12.25392790
Fe       4.54097303       7.39846373      12.26017417
Fe       4.60898190       9.84390391      12.28090641
Fe       2.81100861      11.41537845      13.18695942
Fe       8.81386539       2.95186625      13.21812713
Fe       6.41488076       2.41204875      12.66722710
Fe       7.08680044       7.56201930      12.20916966
Fe       7.26320977      10.02870577      12.15797924
Fe       7.54052891      12.50945971      12.23894482
Fe      11.36075875       2.83167577      13.24888668
Fe      10.19406018       4.71200679      12.27334561
Fe       9.55925818       7.22751976      12.21086633
Fe       9.83040632       9.89521839      12.18422413
Fe      10.00244398      12.34503654      12.21241231
Fe      14.33659047       2.89999928      13.19418105
Fe      12.71712045       4.50747432      12.26496299
Fe      14.26210804       8.55590325      13.21299578
Fe      12.56149997      10.10898000      12.26156478
Fe      13.07129871      12.50158394      12.25843494
