75
Lattice="14.350000000000001 0.0 0.0 0.0 14.350000000000001 0.0 0.0 0.0 20.0" Properties=species:S:1:pos:R:3 generator=HeteroStructRandomize uuid=c9ccf72c-0a24-4faa-aecf-87c8e5f519d0 model_energy=-417.48418199786 uncertainty=2.334787504803842 acquisition_value=-422.1537570074677 time_stamp=7552.619451522827 search_iteration=21 relaxation_steps=88 relax_index=1 final=1 parent_search_iterations="_JSON []" parent_uuids="_JSON []" spawn_uuids="_JSON [\"c9ccf72c-0a24-4faa-aecf-87c8e5f519d0\"]" evaluator_energy="_JSON {\"21\": -417.3056480870883}" iteration=21 database_id=21 pbc="T T F"
O        1.43500000       1.43500000      10.00000000
Mg       0.00000000       0.00000000      10.00000000
O        1.43500000       4.30500000      10.00000000
Mg       0.00000000       2.87000000      10.00000000
O        1.43500000       7.17500000      10.00000000
Mg       0.00000000       5.74000000      10.00000000
O        1.43500000      10.04500000      10.00000000
Mg       0.00000000       8.61000000      10.00000000
O        1.43500000      12.91500000      10.00000000
Mg       0.00000000      11.48000000      10.00000000
O        4.30500000       1.43500000      10.00000000
Mg       2.87000000       0.00000000      10.00000000
O        4.30500000       4.30500000      10.00000000
Mg       2.87000000       2.87000000      10.00000000
O        4.30500000       7.17500000      10.00000000
Mg       2.87000000       5.74000000      10.00000000
O        4.30500000      10.04500000      10.00000000
Mg       2.87000000       8.61000000      10.00000000
O        4.30500000      12.91500000      10.00000000
Mg       2.87000000      11.48000000      10.00000000
O        7.17500000       1.43500000      10.00000000
Mg       5.74000000       0.00000000      10.00000000
O        7.17500000       4.30500000      10.00000000
Mg       5.74000000       2.87000000      10.00000000
O        7.17500000       7.17500000      10.00000000
Mg       5.74000000       5.74000000      10.00000000
O        7.17500000      10.04500000      10.00000000
Mg       5.74000000       8.61000000      10.00000000
O        7.17500000      12.91500000      10.00000000
Mg       5.74000000      11.48000000      10.00000000
O       10.04500000       1.43500000      10.00000000
Mg       8.61000000       0.00000000      10.00000000
O       10.04500000       4.30500000      10.00000000
Mg       8.61000000       2.87000000      10.00000000
O       10.04500000       7.17500000      10.00000000
Mg       8.61000000       5.74000000      10.00000000
O       10.04500000      10.04500000      10.00000000
Mg       8.61000000       8.61000000      10.00000000
O       10.04500000      12.91500000      10.00000000
Mg       8.61000000      11.48000000      10.00000000
O       12.91500000       1.43500000      10.00000000
Mg      11.48000000       0.00000000      10.00000000
O       12.91500000       4.30500000      10.00000000
Mg      11.48000000       2.87000000      10.00000000
O       12.91500000       7.17500000      10.00000000
Mg      11.48000000       5.74000000      10.00000000
O       12.91500000      10.04500000      10.00000000
Mg      11.48000000       8.61000000      10.00000000
O       12.91500000      12.91500000      10.00000000
Mg      11.48000000      11.48000000      10.00000000
Fe       1.72671533       1.69197717      12.18214391
Fe       1.20337633       4.06377211      12.17819165
Fe       1.69571515       7.44886999      12.17822605
Fe       1.17403017       9.91232921      12.17827554
Fe       1.33008357      12.65339818      12.17529210
Fe       4.20066698       1.17992869      12.17893977
Fe       4.58835756       4.56899160      12.17914277
Fe       4.06826305       6.93408408      12.17348233
Fe       4.56129338      10.31869268      12.17884604
Fe       4.03822241      12.77882598      12.17635622
Fe       6.90313141       1.30407243      12.17744230
Fe       7.06225118       4.04399943      12.17526571
Fe       7.45502790       7.42945646      12.17937683
Fe       6.94066541       9.80397092      12.17427484
Fe       7.44367347      13.18922965      12.17649650
Fe      10.30780976       1.71373167      12.17956101
Fe       9.77594229       4.17831452      12.17893137
Fe       9.91981105       6.91103482      12.17774035
Fe      10.33069899      10.29889618      12.18043567
Fe       9.81319218      12.67114240      12.17538945
Fe      12.67754365       1.19439119      12.17335973
Fe      13.18148163       4.57931287      12.17774755
Fe      12.65801013       7.04135487      12.17744582
Fe      12.79722072       9.78175691      12.17604935
Fe      13.20363837      13.17841812      12.18144190
