75
Lattice="14.350000000000001 0.0 0.0 0.0 14.350000000000001 0.0 0.0 0.0 20.0" Properties=species:S:1:pos:R:3 generator=HeteroStructRandomize uuid=3473cae6-1a6a-4946-9dd0-13f068bf292b model_energy=-415.84541151060654 uncertainty=4.756297546319882 acquisition_value=-425.3580066032463 time_stamp=22445.10971236229 search_iteration=22 relaxation_steps=67 relax_index=1 final=1 parent_search_iterations="_JSON []" parent_uuids="_JSON []" spawn_uuids="_JSON [\"3473cae6-1a6a-4946-9dd0-13f068bf292b\"]" evaluator_energy="_JSON {\"22\": -417.1610089765335}" iteration=22 database_id=19 pbc="T T F"
O        1.43500000       1.43500000      10.00000000
Mg       0.00000000       0.00000000      10.00000000
O        1.43500000       4.30500000      10.00000000
Mg       0.00000000       2.87000000      10.00000000
O        1.43500000       7.17500000      10.00000000
Mg       0.00000000       5.74000000      10.00000000
O        1.43500000      10.04500000      10.00000000
Mg       0.00000000       8.61000000      10.00000000
O        1.43500000      12.91500000      10.00000000
Mg       0.00000000      11.48000000      10.00000000
O        4.30500000       1.43500000      10.00000000
Mg       2.87000000       0.00000000      10.00000000
O        4.30500000       4.30500000      10.00000000
Mg       2.87000000       2.87000000      10.00000000
O        4.30500000       7.17500000      10.00000000
Mg       2.87000000       5.74000000      10.00000000
O        4.30500000      10.04500000      10.00000000
Mg       2.87000000       8.61000000      10.00000000
O        4.30500000      12.91500000      10.00000000
Mg       2.87000000      11.48000000      10.00000000
O        7.17500000       1.43500000      10.00000000
Mg       5.74000000       0.00000000      10.00000000
O        7.17500000       4.30500000      10.00000000
Mg       5.74000000       2.87000000      10.00000000
O        7.17500000       7.17500000      10.00000000
Mg       5.74000000       5.74000000      10.00000000
O        7.17500000      10.04500000      10.00000000
Mg       5.74000000       8.61000000      10.00000000
O        7.17500000      12.91500000      10.00000000
Mg       5.74000000      11.48000000      10.00000000
O       10.04500000       1.43500000      10.00000000
Mg       8.61000000       0.00000000      10.00000000
O       10.04500000       4.30500000      10.00000000
Mg       8.61000000       2.87000000      10.00000000
O       10.04500000       7.17500000      10.00000000
Mg       8.61000000       5.74000000      10.00000000
O       10.04500000      10.04500000      10.00000000
Mg       8.61000000       8.61000000      10.00000000
O       10.04500000      12.91500000      10.00000000
Mg       8.61000000      11.48000000      10.00000000
O       12.91500000       1.43500000      10.00000000
Mg      11.48000000       0.00000000      10.00000000
O       12.91500000       4.30500000      10.00000000
Mg      11.48000000       2.87000000      10.00000000
O       12.91500000       7.17500000      10.00000000
Mg      11.48000000       5.74000000      10.00000000
O       12.91500000      10.04500000      10.00000000
Mg      11.48000000       8.61000000      10.00000000
O       12.91500000      12.91500000      10.00000000
Mg      11.48000000      11.48000000      10.00000000
Fe       1.65652957       1.73947922      12.40697800
Fe       1.64386724       4.27946905      12.40427642
Fe       1.50669253       6.83670990      12.40004954
Fe       1.39971425      10.21344614      12.40592612
Fe       1.39310931      12.69706742      12.40414369
Fe       4.12105357       1.75221538      12.40647231
Fe       4.10573377       4.32324048      12.40425972
Fe       4.04964692       6.85821332      12.40591764
Fe       3.95352332      10.26114147      12.40491075
Fe       3.95329138      12.72333515      12.40402782
Fe       7.50662238       1.62708003      12.40600739
Fe       7.50576519       4.09015837      12.40591873
Fe       7.36795379       7.48113747      12.40634884
Fe       7.34804709      10.03059801      12.40357732
Fe       7.35102941      12.59557608      12.40589043
Fe      10.06676765       1.62752510      12.40306497
Fe      10.05753037       4.10414411      12.40481079
Fe       9.84824830       7.50981707      12.40599415
Fe       9.81207652      10.04413370      12.40318932
Fe       9.81551057      12.58123715      12.40636739
Fe      12.60513015       1.63030972      12.40692237
Fe      12.58118057       4.10872260      12.40721581
Fe      13.31064469       7.50653667      12.39940674
Fe      13.23335393      10.11401838      12.40013692
Fe      13.21242141      12.65606583      12.40676863
