75
Lattice="14.350000000000001 0.0 0.0 0.0 14.350000000000001 0.0 0.0 0.0 20.0" Properties=species:S:1:pos:R:3 generator=HeteroStructRandomize uuid=0e33976f-702c-4acf-a60a-19b72e1dd413 model_energy=-416.5086636500373 uncertainty=2.015514194834606 acquisition_value=-420.5396920397065 time_stamp=10866.139189958572 search_iteration=20 relaxation_steps=97 relax_index=1 final=1 parent_search_iterations="_JSON []" parent_uuids="_JSON []" spawn_uuids="_JSON [\"0e33976f-702c-4acf-a60a-19b72e1dd413\"]" evaluator_energy="_JSON {\"20\": -418.1141382443966}" iteration=20 database_id=20 pbc="T T F"
O        1.43500000       1.43500000      10.00000000
Mg       0.00000000       0.00000000      10.00000000
O        1.43500000       4.30500000      10.00000000
Mg       0.00000000       2.87000000      10.00000000
O        1.43500000       7.17500000      10.00000000
Mg       0.00000000       5.74000000      10.00000000
O        1.43500000      10.04500000      10.00000000
Mg       0.00000000       8.61000000      10.00000000
O        1.43500000      12.91500000      10.00000000
Mg       0.00000000      11.48000000      10.00000000
O        4.30500000       1.43500000      10.00000000
Mg       2.87000000       0.00000000      10.00000000
O        4.30500000       4.30500000      10.00000000
Mg       2.87000000       2.87000000      10.00000000
O        4.30500000       7.17500000      10.00000000
Mg       2.87000000       5.74000000      10.00000000
O        4.30500000      10.04500000      10.00000000
Mg       2.87000000       8.61000000      10.00000000
O        4.30500000      12.91500000      10.00000000
Mg       2.87000000      11.48000000      10.00000000
O        7.17500000       1.43500000      10.00000000
Mg       5.74000000       0.00000000      10.00000000
O        7.17500000       4.30500000      10.00000000
Mg       5.74000000       2.87000000      10.00000000
O        7.17500000       7.17500000      10.00000000
Mg       5.74000000       5.74000000      10.00000000
O        7.17500000      10.04500000      10.00000000
Mg       5.74000000       8.61000000      10.00000000
O        7.17500000      12.91500000      10.00000000
Mg       5.74000000      11.48000000      10.00000000
O       10.04500000       1.43500000      10.00000000
Mg       8.61000000       0.00000000      10.00000000
O       10.04500000       4.30500000      10.00000000
Mg       8.61000000       2.87000000      10.00000000
O       10.04500000       7.17500000      10.00000000
Mg       8.61000000       5.74000000      10.00000000
O       10.04500000      10.04500000      10.00000000
Mg       8.61000000       8.61000000      10.00000000
O       10.04500000      12.91500000      10.00000000
Mg       8.61000000      11.48000000      10.00000000
O       12.91500000       1.43500000      10.00000000
Mg      11.48000000       0.00000000      10.00000000
O       12.91500000       4.30500000      10.00000000
Mg      11.48000000       2.87000000      10.00000000
O       12.91500000       7.17500000      10.00000000
Mg      11.48000000       5.74000000      10.00000000
O       12.91500000      10.04500000      10.00000000
Mg      11.48000000       8.61000000      10.00000000
O       12.91500000      12.91500000      10.00000000
Mg      11.48000000      11.48000000      10.00000000
Fe       1.86465886       1.86941234      12.45292112
Fe       1.32949315       4.24545829      12.20209742
Fe       0.86841427       6.59062615      12.51940783
Fe       1.71622359      10.24898243      12.36305203
Fe       1.13030794      12.58583711      12.41845675
Fe       4.24660042       1.33126951      12.19768466
Fe       4.86880267       4.87065806      12.51812600
Fe       4.49917159       7.25744361      12.21742810
Fe       4.04250556       9.63299992      12.42069184
Fe       4.84087099      13.35614601      12.48584218
Fe       6.59435162       0.87258259      12.51767588
Fe       7.25472758       4.50925830      12.22478060
Fe       6.84739536       6.86088389      12.37650811
Fe       7.69556482      10.55761023      12.48997502
Fe       7.16797198      12.89081101      12.19396750
Fe      10.24213300       1.72680911      12.36309278
Fe       9.63003613       4.05165327      12.41802051
Fe      10.55459173       7.70401071      12.49242293
Fe      10.02187990      10.02927533      12.19287296
Fe       9.49387441      12.36082022      12.50787778
Fe      12.57732486       1.13881278      12.42363358
Fe      13.35301269       4.83923661      12.47896411
Fe      12.88483982       7.16876446      12.19581502
Fe      12.35491878       9.49584010      12.50912142
Fe      13.14187336      13.15139475      12.34483197
