77
Lattice="14.89166881178869 0.0 0.0 0.0 14.89166881178869 0.0 0.0 0.0 41.48916688117887" Properties=species:S:1:pos:R:3 generator=RattleGenerator uuid=c4b6628e-09f6-4696-b3e7-1353b84d60d0 model_energy=-423.1865443482759 uncertainty=1.1546704574898294 acquisition_value=-425.49588526325556 time_stamp=28320.381057024002 search_iteration=54 relaxation_steps=95 relax_index=1 final=1 parent_search_iterations="_JSON [30]" parent_uuids="_JSON [\"c42f81d6-f331-47bf-9e9d-81e6ebdc8706\"]" spawn_uuids="_JSON [\"418efcdc-ff07-4fb0-b0c9-67eac09394af\"]" evaluator_energy="_JSON {\"54\": -423.7170271093882}" iteration=54 database_id=54 pbc="T T F"
O        1.48916688       1.48916688      10.00000000
Mg       0.00000000       0.00000000      10.00000000
O        1.48916688       4.46750064      10.00000000
Mg       0.00000000       2.97833376      10.00000000
O        1.48916688       7.44583441      10.00000000
Mg       0.00000000       5.95666752      10.00000000
O        1.48916688      10.42416817      10.00000000
Mg       0.00000000       8.93500129      10.00000000
O        1.48916688      13.40250193      10.00000000
Mg       0.00000000      11.91333505      10.00000000
O        4.46750064       1.48916688      10.00000000
Mg       2.97833376       0.00000000      10.00000000
O        4.46750064       4.46750064      10.00000000
Mg       2.97833376       2.97833376      10.00000000
O        4.46750064       7.44583441      10.00000000
Mg       2.97833376       5.95666752      10.00000000
O        4.46750064      10.42416817      10.00000000
Mg       2.97833376       8.93500129      10.00000000
O        4.46750064      13.40250193      10.00000000
Mg       2.97833376      11.91333505      10.00000000
O        7.44583441       1.48916688      10.00000000
Mg       5.95666752       0.00000000      10.00000000
O        7.44583441       4.46750064      10.00000000
Mg       5.95666752       2.97833376      10.00000000
O        7.44583441       7.44583441      10.00000000
Mg       5.95666752       5.95666752      10.00000000
O        7.44583441      10.42416817      10.00000000
Mg       5.95666752       8.93500129      10.00000000
O        7.44583441      13.40250193      10.00000000
Mg       5.95666752      11.91333505      10.00000000
O       10.42416817       1.48916688      10.00000000
Mg       8.93500129       0.00000000      10.00000000
O       10.42416817       4.46750064      10.00000000
Mg       8.93500129       2.97833376      10.00000000
O       10.42416817       7.44583441      10.00000000
Mg       8.93500129       5.95666752      10.00000000
O       10.42416817      10.42416817      10.00000000
Mg       8.93500129       8.93500129      10.00000000
O       10.42416817      13.40250193      10.00000000
Mg       8.93500129      11.91333505      10.00000000
O       13.40250193       1.48916688      10.00000000
Mg      11.91333505       0.00000000      10.00000000
O       13.40250193       4.46750064      10.00000000
Mg      11.91333505       2.97833376      10.00000000
O       13.40250193       7.44583441      10.00000000
Mg      11.91333505       5.95666752      10.00000000
O       13.40250193      10.42416817      10.00000000
Mg      11.91333505       8.93500129      10.00000000
O       13.40250193      13.40250193      10.00000000
Mg      11.91333505      11.91333505      10.00000000
Co       1.19569718       1.14128210      12.20169001
Co       0.09123742       5.89340879      12.84294932
Fe       1.07618887       7.82881203      12.16557067
Fe       1.74897447      10.28246964      12.09182944
Fe       1.20501960      13.59144454      12.09681538
Co       4.64410677       1.47610088      12.23842785
Fe       4.82576478       4.08873040      12.17964930
Co       3.16095436       8.52008881      12.80027351
Fe       4.26950262      10.52153406      12.07839942
Fe       4.58505970      13.65662527      12.09837071
Co       7.93966484       1.88111071      12.23174842
Fe       7.37169908       4.33322887      12.06986021
Co       8.16067524       6.79898692      12.33282891
Fe       7.71551812      10.71969620      12.10853619
Fe       7.71056825      13.19475472      12.08516646
Fe      10.38647184       1.61556622      12.07352915
Co      10.30905397       4.31492255      12.20385417
Fe      10.88036305       6.86533470      12.29227197
Fe      10.27098280      10.72869360      12.09863678
Fe      10.24778300      13.18466837      12.07940738
Fe      13.66536953       1.05668905      12.17369888
Fe      12.76803911       5.08378892      12.33449756
Fe      13.39846316       7.48318532      12.07312714
Fe      12.85694879      10.88604334      12.27328681
Fe      13.53053950      13.39539283      12.07154522
B        6.19158808       2.69936041      12.51223383
B        8.96922647      11.96050743      12.96263001
