77
Lattice="14.89166881178869 0.0 0.0 0.0 14.89166881178869 0.0 0.0 0.0 41.48916688117887" Properties=species:S:1:pos:R:3 generator=HeteroStructRandomize uuid=9dd43fed-f19f-49b7-b902-c59ecb3995df model_energy=-418.63316697297586 uncertainty=2.191921948353991 acquisition_value=-423.0170108696838 time_stamp=12042.26505613327 search_iteration=22 relaxation_steps=79 relax_index=1 final=1 parent_search_iterations="_JSON []" parent_uuids="_JSON []" spawn_uuids="_JSON [\"9dd43fed-f19f-49b7-b902-c59ecb3995df\"]" evaluator_energy="_JSON {\"22\": -421.57043904987836}" iteration=22 database_id=22 pbc="T T F"
O        1.48916688       1.48916688      10.00000000
Mg       0.00000000       0.00000000      10.00000000
O        1.48916688       4.46750064      10.00000000
Mg       0.00000000       2.97833376      10.00000000
O        1.48916688       7.44583441      10.00000000
Mg       0.00000000       5.95666752      10.00000000
O        1.48916688      10.42416817      10.00000000
Mg       0.00000000       8.93500129      10.00000000
O        1.48916688      13.40250193      10.00000000
Mg       0.00000000      11.91333505      10.00000000
O        4.46750064       1.48916688      10.00000000
Mg       2.97833376       0.00000000      10.00000000
O        4.46750064       4.46750064      10.00000000
Mg       2.97833376       2.97833376      10.00000000
O        4.46750064       7.44583441      10.00000000
Mg       2.97833376       5.95666752      10.00000000
O        4.46750064      10.42416817      10.00000000
Mg       2.97833376       8.93500129      10.00000000
O        4.46750064      13.40250193      10.00000000
Mg       2.97833376      11.91333505      10.00000000
O        7.44583441       1.48916688      10.00000000
Mg       5.95666752       0.00000000      10.00000000
O        7.44583441       4.46750064      10.00000000
Mg       5.95666752       2.97833376      10.00000000
O        7.44583441       7.44583441      10.00000000
Mg       5.95666752       5.95666752      10.00000000
O        7.44583441      10.42416817      10.00000000
Mg       5.95666752       8.93500129      10.00000000
O        7.44583441      13.40250193      10.00000000
Mg       5.95666752      11.91333505      10.00000000
O       10.42416817       1.48916688      10.00000000
Mg       8.93500129       0.00000000      10.00000000
O       10.42416817       4.46750064      10.00000000
Mg       8.93500129       2.97833376      10.00000000
O       10.42416817       7.44583441      10.00000000
Mg       8.93500129       5.95666752      10.00000000
O       10.42416817      10.42416817      10.00000000
Mg       8.93500129       8.93500129      10.00000000
O       10.42416817      13.40250193      10.00000000
Mg       8.93500129      11.91333505      10.00000000
O       13.40250193       1.48916688      10.00000000
Mg      11.91333505       0.00000000      10.00000000
O       13.40250193       4.46750064      10.00000000
Mg      11.91333505       2.97833376      10.00000000
O       13.40250193       7.44583441      10.00000000
Mg      11.91333505       5.95666752      10.00000000
O       13.40250193      10.42416817      10.00000000
Mg      11.91333505       8.93500129      10.00000000
O       13.40250193      13.40250193      10.00000000
Mg      11.91333505      11.91333505      10.00000000
Co       1.19306680       1.09225923      12.10675503
Co       1.76377931       4.64557123      12.10147876
Fe       1.54367472       7.31276455      12.20509716
Fe       1.45583707      10.66557058      12.19108711
Fe       1.65455364      13.29312978      12.19283578
Co       4.37988470       1.86939491      12.10316189
Fe       4.40257925       4.48223791      12.20817805
Co       4.19907917       7.17364120      12.10102469
Fe       4.68313540      10.64063033      12.19365172
Fe       4.31759085      13.22280176      12.19749304
Co       7.69980750       1.81488325      12.10321938
Fe       7.54819119       4.44816180      12.20352316
Co       7.81417500       7.15088914      12.10565553
Fe       7.32217935      10.67010800      12.19066512
Fe       7.52855676      13.23779821      12.19254342
Fe      10.35688039       1.62162400      12.20299482
Co      10.20360646       4.42294466      12.10459375
Fe      10.52874827       7.29601105      12.19519224
Fe      10.56220645      10.62951261      12.19005790
Fe      10.56233329      13.20098283      12.18949784
Fe      13.45357557       1.22734380      12.19108207
Fe      13.33039228       4.49126180      12.20980259
Fe      13.16337206       7.67679127      12.19120415
Fe      13.14204092      10.25264958      12.18547555
Fe      13.19484371      13.54613829      12.19168298
B        6.00742275       3.02506419      12.38567143
B        8.97818508      11.89733294      12.39664695
