77
Lattice="14.89166881178869 0.0 0.0 0.0 14.89166881178869 0.0 0.0 0.0 41.48916688117887" Properties=species:S:1:pos:R:3 generator=RattleGenerator uuid=6b548716-c054-45b0-9b9a-8acec9aa8c48 model_energy=-432.8659795566269 uncertainty=0.9366713751914334 acquisition_value=-434.73932230700973 time_stamp=80722.13566303253 search_iteration=98 relaxation_steps=100 relax_index=1 final=1 parent_search_iterations="_JSON [94]" parent_uuids="_JSON [\"dab8ee7b-139d-4e5d-a680-75a7732d1c80\"]" spawn_uuids="_JSON [\"4ad98e29-d9de-49cf-a1ca-c191f608edba\"]" evaluator_energy="_JSON {\"98\": -431.7447820219993}" iteration=98 database_id=98 pbc="T T F"
O        1.48916688       1.48916688      10.00000000
Mg       0.00000000       0.00000000      10.00000000
O        1.48916688       4.46750064      10.00000000
Mg       0.00000000       2.97833376      10.00000000
O        1.48916688       7.44583441      10.00000000
Mg       0.00000000       5.95666752      10.00000000
O        1.48916688      10.42416817      10.00000000
Mg       0.00000000       8.93500129      10.00000000
O        1.48916688      13.40250193      10.00000000
Mg       0.00000000      11.91333505      10.00000000
O        4.46750064       1.48916688      10.00000000
Mg       2.97833376       0.00000000      10.00000000
O        4.46750064       4.46750064      10.00000000
Mg       2.97833376       2.97833376      10.00000000
O        4.46750064       7.44583441      10.00000000
Mg       2.97833376       5.95666752      10.00000000
O        4.46750064      10.42416817      10.00000000
Mg       2.97833376       8.93500129      10.00000000
O        4.46750064      13.40250193      10.00000000
Mg       2.97833376      11.91333505      10.00000000
O        7.44583441       1.48916688      10.00000000
Mg       5.95666752       0.00000000      10.00000000
O        7.44583441       4.46750064      10.00000000
Mg       5.95666752       2.97833376      10.00000000
O        7.44583441       7.44583441      10.00000000
Mg       5.95666752       5.95666752      10.00000000
O        7.44583441      10.42416817      10.00000000
Mg       5.95666752       8.93500129      10.00000000
O        7.44583441      13.40250193      10.00000000
Mg       5.95666752      11.91333505      10.00000000
O       10.42416817       1.48916688      10.00000000
Mg       8.93500129       0.00000000      10.00000000
O       10.42416817       4.46750064      10.00000000
Mg       8.93500129       2.97833376      10.00000000
O       10.42416817       7.44583441      10.00000000
Mg       8.93500129       5.95666752      10.00000000
O       10.42416817      10.42416817      10.00000000
Mg       8.93500129       8.93500129      10.00000000
O       10.42416817      13.40250193      10.00000000
Mg       8.93500129      11.91333505      10.00000000
O       13.40250193       1.48916688      10.00000000
Mg      11.91333505       0.00000000      10.00000000
O       13.40250193       4.46750064      10.00000000
Mg      11.91333505       2.97833376      10.00000000
O       13.40250193       7.44583441      10.00000000
Mg      11.91333505       5.95666752      10.00000000
O       13.40250193      10.42416817      10.00000000
Mg      11.91333505       8.93500129      10.00000000
O       13.40250193      13.40250193      10.00000000
Mg      11.91333505      11.91333505      10.00000000
Co      -3.46084391      -0.74507774      14.77817250
Co      -2.84900865       1.52383948      14.50867349
Fe       8.67108661       5.91049332      14.23181467
Fe       5.85669084       8.04461796      12.74946866
Fe      -1.47756853      14.75962363      13.25156046
Co       7.65333282       0.02528858      14.00521681
Fe       7.65021669       6.52500415      12.13572170
Co       6.22458984       5.95860603      13.88322873
Fe       7.32335229      13.38018435      12.17383778
Fe       8.47753125      11.33209460      12.91123108
Co       7.32613482       4.18768651      15.25724528
Fe       7.40202979       4.15606285      12.91985166
Co       9.83708910       7.19620036      12.46395199
Fe       8.12796787       8.87732425      12.69147399
Fe       9.53338213      13.65120758      13.09008281
Fe       9.67129403       1.09856472      14.17175486
Co      10.83858117       2.77765334      12.80531954
Fe       9.64236831       4.80251249      12.23453614
Fe      10.39841883       9.75651495      13.00034517
Fe       9.21395256      13.88755921      15.48951295
Fe      11.20206935       0.37257272      12.54517616
Fe      12.96435442       1.96364445      12.14819398
Fe       9.37455677       3.56640005      14.39592307
Fe      10.36363162      11.87131271      14.48014162
Fe      11.92012113      12.89415404      12.78882604
B        8.89977346       2.86352585      12.60397454
B       10.34487766      11.76121829      12.47927600
