77
Lattice="14.89166881178869 0.0 0.0 0.0 14.89166881178869 0.0 0.0 0.0 41.48916688117887" Properties=species:S:1:pos:R:3 generator=RattleGenerator uuid=2566c167-f357-4c39-acc9-c308799c8357 model_energy=-422.7395284920635 uncertainty=1.502072104730986 acquisition_value=-425.7436727015255 time_stamp=31494.550884246826 search_iteration=45 relaxation_steps=88 relax_index=1 final=1 parent_search_iterations="_JSON [19]" parent_uuids="_JSON [\"6f56d072-4790-4e3f-adc3-7e3cfcdd182c\"]" spawn_uuids="_JSON [\"6f56d072-4790-4e3f-adc3-7e3cfcdd182c\"]" evaluator_energy="_JSON {\"45\": -421.4549328678467}" iteration=45 database_id=45 pbc="T T F"
O        1.48916688       1.48916688      10.00000000
Mg       0.00000000       0.00000000      10.00000000
O        1.48916688       4.46750064      10.00000000
Mg       0.00000000       2.97833376      10.00000000
O        1.48916688       7.44583441      10.00000000
Mg       0.00000000       5.95666752      10.00000000
O        1.48916688      10.42416817      10.00000000
Mg       0.00000000       8.93500129      10.00000000
O        1.48916688      13.40250193      10.00000000
Mg       0.00000000      11.91333505      10.00000000
O        4.46750064       1.48916688      10.00000000
Mg       2.97833376       0.00000000      10.00000000
O        4.46750064       4.46750064      10.00000000
Mg       2.97833376       2.97833376      10.00000000
O        4.46750064       7.44583441      10.00000000
Mg       2.97833376       5.95666752      10.00000000
O        4.46750064      10.42416817      10.00000000
Mg       2.97833376       8.93500129      10.00000000
O        4.46750064      13.40250193      10.00000000
Mg       2.97833376      11.91333505      10.00000000
O        7.44583441       1.48916688      10.00000000
Mg       5.95666752       0.00000000      10.00000000
O        7.44583441       4.46750064      10.00000000
Mg       5.95666752       2.97833376      10.00000000
O        7.44583441       7.44583441      10.00000000
Mg       5.95666752       5.95666752      10.00000000
O        7.44583441      10.42416817      10.00000000
Mg       5.95666752       8.93500129      10.00000000
O        7.44583441      13.40250193      10.00000000
Mg       5.95666752      11.91333505      10.00000000
O       10.42416817       1.48916688      10.00000000
Mg       8.93500129       0.00000000      10.00000000
O       10.42416817       4.46750064      10.00000000
Mg       8.93500129       2.97833376      10.00000000
O       10.42416817       7.44583441      10.00000000
Mg       8.93500129       5.95666752      10.00000000
O       10.42416817      10.42416817      10.00000000
Mg       8.93500129       8.93500129      10.00000000
O       10.42416817      13.40250193      10.00000000
Mg       8.93500129      11.91333505      10.00000000
O       13.40250193       1.48916688      10.00000000
Mg      11.91333505       0.00000000      10.00000000
O       13.40250193       4.46750064      10.00000000
Mg      11.91333505       2.97833376      10.00000000
O       13.40250193       7.44583441      10.00000000
Mg      11.91333505       5.95666752      10.00000000
O       13.40250193      10.42416817      10.00000000
Mg      11.91333505       8.93500129      10.00000000
O       13.40250193      13.40250193      10.00000000
Mg      11.91333505      11.91333505      10.00000000
Co       1.70451038       1.02901975      12.05813939
Co       2.87488478       5.96314478      13.43610492
Fe       1.58176991       7.71646096      12.25392277
Fe       1.39937949      10.46083379      12.21875212
Fe       1.73330954      13.46431860      12.21537569
Co       4.77179688       0.97154109      12.06287158
Fe       4.56109745       4.63387835      12.25161290
Co       4.01247755       7.08289661      12.01997342
Fe       4.64536927      10.68014186      12.21106533
Fe       4.42092934      13.33098151      12.23813296
Co       7.87696405       1.76702583      12.05076624
Fe       5.94946506       2.84986012      13.09060190
Co       7.96309865       7.83704473      12.05263392
Fe       7.30037726      10.27335930      12.20938760
Fe       8.45526702      12.07513223      13.05924007
Fe      10.30897274       1.27227101      12.26426681
Co      10.74424468       4.85919105      12.03940936
Fe      10.44849653       7.28248842      12.21458254
Fe      10.19949110      10.68201043      12.25446105
Fe      10.37233716      13.37506595      12.25924034
Fe      11.82622975       2.97324760      13.09495744
Fe      13.14684817       4.76295213      12.25600912
Fe      13.16543975       7.31834760      12.22967287
Fe      13.71830550      10.14149926      12.26220474
Fe      14.83081563      14.67574779      13.11637282
B        2.97842485      11.85179543      12.65070668
B        6.15372243      12.02411658      12.66333032
