77
Lattice="14.89166881178869 0.0 0.0 0.0 14.89166881178869 0.0 0.0 0.0 41.48916688117887" Properties=species:S:1:pos:R:3 generator=RattleGenerator uuid=cf4aecd8-b608-4973-9d28-645346952841 model_energy=-423.13085729153397 uncertainty=1.2613156846140314 acquisition_value=-425.65348866076204 time_stamp=26467.144862174988 search_iteration=48 relaxation_steps=100 relax_index=1 final=1 parent_search_iterations="_JSON [37]" parent_uuids="_JSON [\"83d35704-f4a4-4e91-aaaf-a770c711282f\"]" spawn_uuids="_JSON [\"418efcdc-ff07-4fb0-b0c9-67eac09394af\"]" evaluator_energy="_JSON {\"48\": -425.14875368324516}" iteration=48 database_id=48 pbc="T T F"
O        1.48916688       1.48916688      10.00000000
Mg       0.00000000       0.00000000      10.00000000
O        1.48916688       4.46750064      10.00000000
Mg       0.00000000       2.97833376      10.00000000
O        1.48916688       7.44583441      10.00000000
Mg       0.00000000       5.95666752      10.00000000
O        1.48916688      10.42416817      10.00000000
Mg       0.00000000       8.93500129      10.00000000
O        1.48916688      13.40250193      10.00000000
Mg       0.00000000      11.91333505      10.00000000
O        4.46750064       1.48916688      10.00000000
Mg       2.97833376       0.00000000      10.00000000
O        4.46750064       4.46750064      10.00000000
Mg       2.97833376       2.97833376      10.00000000
O        4.46750064       7.44583441      10.00000000
Mg       2.97833376       5.95666752      10.00000000
O        4.46750064      10.42416817      10.00000000
Mg       2.97833376       8.93500129      10.00000000
O        4.46750064      13.40250193      10.00000000
Mg       2.97833376      11.91333505      10.00000000
O        7.44583441       1.48916688      10.00000000
Mg       5.95666752       0.00000000      10.00000000
O        7.44583441       4.46750064      10.00000000
Mg       5.95666752       2.97833376      10.00000000
O        7.44583441       7.44583441      10.00000000
Mg       5.95666752       5.95666752      10.00000000
O        7.44583441      10.42416817      10.00000000
Mg       5.95666752       8.93500129      10.00000000
O        7.44583441      13.40250193      10.00000000
Mg       5.95666752      11.91333505      10.00000000
O       10.42416817       1.48916688      10.00000000
Mg       8.93500129       0.00000000      10.00000000
O       10.42416817       4.46750064      10.00000000
Mg       8.93500129       2.97833376      10.00000000
O       10.42416817       7.44583441      10.00000000
Mg       8.93500129       5.95666752      10.00000000
O       10.42416817      10.42416817      10.00000000
Mg       8.93500129       8.93500129      10.00000000
O       10.42416817      13.40250193      10.00000000
Mg       8.93500129      11.91333505      10.00000000
O       13.40250193       1.48916688      10.00000000
Mg      11.91333505       0.00000000      10.00000000
O       13.40250193       4.46750064      10.00000000
Mg      11.91333505       2.97833376      10.00000000
O       13.40250193       7.44583441      10.00000000
Mg      11.91333505       5.95666752      10.00000000
O       13.40250193      10.42416817      10.00000000
Mg      11.91333505       8.93500129      10.00000000
O       13.40250193      13.40250193      10.00000000
Mg      11.91333505      11.91333505      10.00000000
Co       0.99654160       0.93614778      12.21399485
Co       0.02516023       5.86830418      12.87736491
Fe       1.35383394       7.68639524      12.10828272
Fe       1.62470423      10.18768068      12.10280400
Fe       1.37729561      13.45164113      12.07656676
Co       4.86667867       1.93102815      12.17502410
Fe       4.66118684       4.25713753      12.10787106
Co       2.94342962      11.94129802      12.96091466
Fe       4.69782028      10.66134000      12.10163431
Fe       4.78395820      13.11330211      12.13207077
Co       8.38321708       3.07163085      12.79944814
Fe      10.50075566       4.23645814      12.11916134
Co       8.86617235       9.40299469      12.97022070
Fe       7.14034643      10.61646548      12.04838688
Fe       7.33843424      13.00525381      12.13657284
Fe      10.26185860       1.75246342      12.07176279
Co      12.05592385       2.76348490      13.07317936
Fe      10.64922517       7.83272471      12.15383420
Fe      10.50733934      10.49142639      12.04668414
Fe      11.67863184      14.86594629      12.88161943
Fe      13.52930566       1.33125739      12.05496089
Fe      13.09394912       4.60341055      12.09615193
Fe      13.12863092       7.14838259      12.12671806
Fe      11.83463042      12.40263201      12.88722018
Fe      13.77645903      13.76970668      12.15620778
B        6.36488645       3.23902353      12.48266844
B        8.79780127      11.48385919      12.53991606
