77
Lattice="14.89166881178869 0.0 0.0 0.0 14.89166881178869 0.0 0.0 0.0 41.48916688117887" Properties=species:S:1:pos:R:3 generator=HeteroStructRandomize uuid=c96cb591-6046-4f54-b7b2-80b67c94b16c model_energy=-418.9415113031622 uncertainty=2.5502557400084283 acquisition_value=-424.04202278317905 time_stamp=12365.930283546448 search_iteration=23 relaxation_steps=95 relax_index=1 final=1 parent_search_iterations="_JSON []" parent_uuids="_JSON []" spawn_uuids="_JSON [\"c96cb591-6046-4f54-b7b2-80b67c94b16c\"]" evaluator_energy="_JSON {\"23\": -419.92210316942345}" iteration=23 database_id=23 pbc="T T F"
O        1.48916688       1.48916688      10.00000000
Mg       0.00000000       0.00000000      10.00000000
O        1.48916688       4.46750064      10.00000000
Mg       0.00000000       2.97833376      10.00000000
O        1.48916688       7.44583441      10.00000000
Mg       0.00000000       5.95666752      10.00000000
O        1.48916688      10.42416817      10.00000000
Mg       0.00000000       8.93500129      10.00000000
O        1.48916688      13.40250193      10.00000000
Mg       0.00000000      11.91333505      10.00000000
O        4.46750064       1.48916688      10.00000000
Mg       2.97833376       0.00000000      10.00000000
O        4.46750064       4.46750064      10.00000000
Mg       2.97833376       2.97833376      10.00000000
O        4.46750064       7.44583441      10.00000000
Mg       2.97833376       5.95666752      10.00000000
O        4.46750064      10.42416817      10.00000000
Mg       2.97833376       8.93500129      10.00000000
O        4.46750064      13.40250193      10.00000000
Mg       2.97833376      11.91333505      10.00000000
O        7.44583441       1.48916688      10.00000000
Mg       5.95666752       0.00000000      10.00000000
O        7.44583441       4.46750064      10.00000000
Mg       5.95666752       2.97833376      10.00000000
O        7.44583441       7.44583441      10.00000000
Mg       5.95666752       5.95666752      10.00000000
O        7.44583441      10.42416817      10.00000000
Mg       5.95666752       8.93500129      10.00000000
O        7.44583441      13.40250193      10.00000000
Mg       5.95666752      11.91333505      10.00000000
O       10.42416817       1.48916688      10.00000000
Mg       8.93500129       0.00000000      10.00000000
O       10.42416817       4.46750064      10.00000000
Mg       8.93500129       2.97833376      10.00000000
O       10.42416817       7.44583441      10.00000000
Mg       8.93500129       5.95666752      10.00000000
O       10.42416817      10.42416817      10.00000000
Mg       8.93500129       8.93500129      10.00000000
O       10.42416817      13.40250193      10.00000000
Mg       8.93500129      11.91333505      10.00000000
O       13.40250193       1.48916688      10.00000000
Mg      11.91333505       0.00000000      10.00000000
O       13.40250193       4.46750064      10.00000000
Mg      11.91333505       2.97833376      10.00000000
O       13.40250193       7.44583441      10.00000000
Mg      11.91333505       5.95666752      10.00000000
O       13.40250193      10.42416817      10.00000000
Mg      11.91333505       8.93500129      10.00000000
O       13.40250193      13.40250193      10.00000000
Mg      11.91333505      11.91333505      10.00000000
Co       1.10631334       1.11985864      12.09178658
Co       1.33667074       4.82895191      12.08925378
Fe       1.25317431       7.61997218      12.20248143
Fe       1.26157690      10.39897106      12.20392163
Fe       1.14842131      13.16457499      12.20439890
Co       4.37139760       1.79336275      12.09358821
Fe       4.15304643       4.59635528      12.20176578
Co       4.04993804       7.41065958      12.09013202
Fe       4.01127976      10.23458492      12.20051156
Fe       4.68250460      13.78456337      12.20308706
Co       7.78909086       1.77158126      12.09601355
Fe       7.78673049       4.59612685      12.20069632
Co       7.84286100       7.41887964      12.08535796
Fe       7.84137603      10.23558348      12.20608575
Fe       7.27671447      13.79301550      12.19797995
Fe      10.61640365       1.87027787      12.19981554
Co      10.57039767       4.74107758      12.08860329
Fe      10.60753344       7.58746106      12.20606819
Fe      10.56801487      10.31245407      12.20692342
Fe      10.70237195      13.00877764      12.21363198
Fe      13.21205538       1.07689236      12.20037279
Fe      13.37790383       4.83914810      12.19354562
Fe      13.37212983       7.61718519      12.21039187
Fe      13.37686031      10.36580055      12.21744209
Fe      13.35911185      13.17470745      12.20515159
B        6.04240708       2.83327999      12.47361622
B        9.14207180       8.89740747      12.48412099
