77
Lattice="14.89166881178869 0.0 0.0 0.0 14.89166881178869 0.0 0.0 0.0 41.48916688117887" Properties=species:S:1:pos:R:3 generator=RattleGenerator uuid=33fed385-8af9-4e1c-ac25-aa09dc198c01 model_energy=-426.0449497918378 uncertainty=0.8701135102900174 acquisition_value=-427.78517681241783 time_stamp=33799.01740980148 search_iteration=70 relaxation_steps=100 relax_index=1 final=1 parent_search_iterations="_JSON [64]" parent_uuids="_JSON [\"c1c3f170-0d0a-4972-90e6-81132718cfa6\"]" spawn_uuids="_JSON [\"418efcdc-ff07-4fb0-b0c9-67eac09394af\"]" evaluator_energy="_JSON {\"70\": -425.99744061178814}" iteration=70 database_id=70 pbc="T T F"
O        1.48916688       1.48916688      10.00000000
Mg       0.00000000       0.00000000      10.00000000
O        1.48916688       4.46750064      10.00000000
Mg       0.00000000       2.97833376      10.00000000
O        1.48916688       7.44583441      10.00000000
Mg       0.00000000       5.95666752      10.00000000
O        1.48916688      10.42416817      10.00000000
Mg       0.00000000       8.93500129      10.00000000
O        1.48916688      13.40250193      10.00000000
Mg       0.00000000      11.91333505      10.00000000
O        4.46750064       1.48916688      10.00000000
Mg       2.97833376       0.00000000      10.00000000
O        4.46750064       4.46750064      10.00000000
Mg       2.97833376       2.97833376      10.00000000
O        4.46750064       7.44583441      10.00000000
Mg       2.97833376       5.95666752      10.00000000
O        4.46750064      10.42416817      10.00000000
Mg       2.97833376       8.93500129      10.00000000
O        4.46750064      13.40250193      10.00000000
Mg       2.97833376      11.91333505      10.00000000
O        7.44583441       1.48916688      10.00000000
Mg       5.95666752       0.00000000      10.00000000
O        7.44583441       4.46750064      10.00000000
Mg       5.95666752       2.97833376      10.00000000
O        7.44583441       7.44583441      10.00000000
Mg       5.95666752       5.95666752      10.00000000
O        7.44583441      10.42416817      10.00000000
Mg       5.95666752       8.93500129      10.00000000
O        7.44583441      13.40250193      10.00000000
Mg       5.95666752      11.91333505      10.00000000
O       10.42416817       1.48916688      10.00000000
Mg       8.93500129       0.00000000      10.00000000
O       10.42416817       4.46750064      10.00000000
Mg       8.93500129       2.97833376      10.00000000
O       10.42416817       7.44583441      10.00000000
Mg       8.93500129       5.95666752      10.00000000
O       10.42416817      10.42416817      10.00000000
Mg       8.93500129       8.93500129      10.00000000
O       10.42416817      13.40250193      10.00000000
Mg       8.93500129      11.91333505      10.00000000
O       13.40250193       1.48916688      10.00000000
Mg      11.91333505       0.00000000      10.00000000
O       13.40250193       4.46750064      10.00000000
Mg      11.91333505       2.97833376      10.00000000
O       13.40250193       7.44583441      10.00000000
Mg      11.91333505       5.95666752      10.00000000
O       13.40250193      10.42416817      10.00000000
Mg      11.91333505       8.93500129      10.00000000
O       13.40250193      13.40250193      10.00000000
Mg      11.91333505      11.91333505      10.00000000
Co      -0.40091262      -0.25527274      12.78788137
Co       0.03831889       5.90843113      12.75789601
Fe       1.27621854       7.78087615      12.14884332
Fe       1.61665414      10.23778613      12.10795392
Fe       1.66141342      13.56471165      12.12705516
Co       4.78442346       1.37198824      12.12080101
Fe       4.84203556       3.75842774      12.37669505
Co       3.12194434      11.86749755      12.79265698
Fe       4.89866113      10.55574415      12.16014483
Fe       4.22801200      13.83955195      12.18937802
Co       7.89818231       1.04518261      12.20006634
Fe      10.89353572       5.36244918      12.47087508
Co       9.11222704       9.60032720      12.87072482
Fe       7.38935522      10.92119450      12.12181693
Fe       7.76845899      13.43433145      12.20181684
Fe      10.40968288       0.92532312      12.26858548
Co      11.35314592       3.06738188      12.77878346
Fe      10.50928635       7.80955669      12.17513350
Fe      10.80964085      11.09799294      12.44115098
Fe      10.35335355      12.98488160      14.09541209
Fe      12.94926577       1.44759521      12.17883723
Fe      13.14553418       4.49364728      12.11938518
Fe      12.89220220       6.99566249      12.33652908
Fe      10.10864531      13.38048384      11.93538049
Fe      12.21388160      14.06232623      12.82243807
B        6.42583313       2.46363556      12.44732146
B        9.00129169      11.84092987      12.92428845
