77
Lattice="14.89166881178869 0.0 0.0 0.0 14.89166881178869 0.0 0.0 0.0 41.48916688117887" Properties=species:S:1:pos:R:3 generator=RattleGenerator uuid=a168d893-a5ea-421a-9d16-1b6aa82a150c model_energy=-422.45368672044964 uncertainty=1.3645368425302846 acquisition_value=-425.1827604055102 time_stamp=30274.418540239334 search_iteration=41 relaxation_steps=100 relax_index=1 final=1 parent_search_iterations="_JSON [10]" parent_uuids="_JSON [\"b0253dd8-4e3b-4993-8ec3-9fce0f69cb28\"]" spawn_uuids="_JSON [\"b0253dd8-4e3b-4993-8ec3-9fce0f69cb28\"]" evaluator_energy="_JSON {\"41\": -422.82677855479164}" iteration=41 database_id=41 pbc="T T F"
O        1.48916688       1.48916688      10.00000000
Mg       0.00000000       0.00000000      10.00000000
O        1.48916688       4.46750064      10.00000000
Mg       0.00000000       2.97833376      10.00000000
O        1.48916688       7.44583441      10.00000000
Mg       0.00000000       5.95666752      10.00000000
O        1.48916688      10.42416817      10.00000000
Mg       0.00000000       8.93500129      10.00000000
O        1.48916688      13.40250193      10.00000000
Mg       0.00000000      11.91333505      10.00000000
O        4.46750064       1.48916688      10.00000000
Mg       2.97833376       0.00000000      10.00000000
O        4.46750064       4.46750064      10.00000000
Mg       2.97833376       2.97833376      10.00000000
O        4.46750064       7.44583441      10.00000000
Mg       2.97833376       5.95666752      10.00000000
O        4.46750064      10.42416817      10.00000000
Mg       2.97833376       8.93500129      10.00000000
O        4.46750064      13.40250193      10.00000000
Mg       2.97833376      11.91333505      10.00000000
O        7.44583441       1.48916688      10.00000000
Mg       5.95666752       0.00000000      10.00000000
O        7.44583441       4.46750064      10.00000000
Mg       5.95666752       2.97833376      10.00000000
O        7.44583441       7.44583441      10.00000000
Mg       5.95666752       5.95666752      10.00000000
O        7.44583441      10.42416817      10.00000000
Mg       5.95666752       8.93500129      10.00000000
O        7.44583441      13.40250193      10.00000000
Mg       5.95666752      11.91333505      10.00000000
O       10.42416817       1.48916688      10.00000000
Mg       8.93500129       0.00000000      10.00000000
O       10.42416817       4.46750064      10.00000000
Mg       8.93500129       2.97833376      10.00000000
O       10.42416817       7.44583441      10.00000000
Mg       8.93500129       5.95666752      10.00000000
O       10.42416817      10.42416817      10.00000000
Mg       8.93500129       8.93500129      10.00000000
O       10.42416817      13.40250193      10.00000000
Mg       8.93500129      11.91333505      10.00000000
O       13.40250193       1.48916688      10.00000000
Mg      11.91333505       0.00000000      10.00000000
O       13.40250193       4.46750064      10.00000000
Mg      11.91333505       2.97833376      10.00000000
O       13.40250193       7.44583441      10.00000000
Mg      11.91333505       5.95666752      10.00000000
O       13.40250193      10.42416817      10.00000000
Mg      11.91333505       8.93500129      10.00000000
O       13.40250193      13.40250193      10.00000000
Mg      11.91333505      11.91333505      10.00000000
Co       1.03289375       1.16108476      12.07242153
Co       1.14635784       4.99449645      12.07410859
Fe       1.65328066       7.40700387      12.14360951
Fe       1.56400038      10.25391530      12.12479727
Fe       1.18286599      13.61830210      12.18953528
Co       4.47526170       2.11914099      12.06195994
Fe       4.49395216       4.54779201      12.10806301
Co       4.06954324       7.00193914      12.06824376
Fe       3.98996759      10.73576051      12.25474199
Fe       4.75803111      13.06556379      12.22927746
Co       6.91533027       4.43439280      12.08219044
Fe       8.48493488       6.07407605      12.90943386
Co       7.93783873       8.20768590      12.09709822
Fe       7.58205028      10.59836401      12.12405215
Fe       7.58943787      13.11089820      12.15186520
Fe      10.55611581       1.20153946      12.17935965
Co      10.50606060       5.10329019      12.07043764
Fe      10.25183861       7.51642539      12.14703346
Fe       9.82771379       9.90261521      12.32420342
Fe      10.04355832      13.68020875      12.20704104
Fe      13.55414819       1.77848283      12.17941061
Fe      13.64485322       4.36173382      12.15696114
Fe      14.35724538       6.53830470      12.76764070
Fe      13.56985432      10.62879818      12.15579239
Fe      13.68755143      13.03200316      12.22684478
B        3.05490174       8.90253258      12.37896017
B        9.15702155      11.84652013      12.37472421
