77
Lattice="14.89166881178869 0.0 0.0 0.0 14.89166881178869 0.0 0.0 0.0 41.48916688117887" Properties=species:S:1:pos:R:3 generator=RattleGenerator uuid=95f25791-bdec-4c30-b5a0-ed856d95da3a model_energy=-424.01927563660377 uncertainty=1.172300063303282 acquisition_value=-426.36387576321033 time_stamp=32398.026282072067 search_iteration=48 relaxation_steps=100 relax_index=1 final=1 parent_search_iterations="_JSON [25]" parent_uuids="_JSON [\"335bacd3-cdc1-4762-9c33-0df495a7f3e6\"]" spawn_uuids="_JSON [\"fefd0a13-bbb6-4ddb-a099-506c8efd1c3d\"]" evaluator_energy="_JSON {\"48\": -424.4932398170563}" iteration=48 database_id=48 pbc="T T F"
O        1.48916688       1.48916688      10.00000000
Mg       0.00000000       0.00000000      10.00000000
O        1.48916688       4.46750064      10.00000000
Mg       0.00000000       2.97833376      10.00000000
O        1.48916688       7.44583441      10.00000000
Mg       0.00000000       5.95666752      10.00000000
O        1.48916688      10.42416817      10.00000000
Mg       0.00000000       8.93500129      10.00000000
O        1.48916688      13.40250193      10.00000000
Mg       0.00000000      11.91333505      10.00000000
O        4.46750064       1.48916688      10.00000000
Mg       2.97833376       0.00000000      10.00000000
O        4.46750064       4.46750064      10.00000000
Mg       2.97833376       2.97833376      10.00000000
O        4.46750064       7.44583441      10.00000000
Mg       2.97833376       5.95666752      10.00000000
O        4.46750064      10.42416817      10.00000000
Mg       2.97833376       8.93500129      10.00000000
O        4.46750064      13.40250193      10.00000000
Mg       2.97833376      11.91333505      10.00000000
O        7.44583441       1.48916688      10.00000000
Mg       5.95666752       0.00000000      10.00000000
O        7.44583441       4.46750064      10.00000000
Mg       5.95666752       2.97833376      10.00000000
O        7.44583441       7.44583441      10.00000000
Mg       5.95666752       5.95666752      10.00000000
O        7.44583441      10.42416817      10.00000000
Mg       5.95666752       8.93500129      10.00000000
O        7.44583441      13.40250193      10.00000000
Mg       5.95666752      11.91333505      10.00000000
O       10.42416817       1.48916688      10.00000000
Mg       8.93500129       0.00000000      10.00000000
O       10.42416817       4.46750064      10.00000000
Mg       8.93500129       2.97833376      10.00000000
O       10.42416817       7.44583441      10.00000000
Mg       8.93500129       5.95666752      10.00000000
O       10.42416817      10.42416817      10.00000000
Mg       8.93500129       8.93500129      10.00000000
O       10.42416817      13.40250193      10.00000000
Mg       8.93500129      11.91333505      10.00000000
O       13.40250193       1.48916688      10.00000000
Mg      11.91333505       0.00000000      10.00000000
O       13.40250193       4.46750064      10.00000000
Mg      11.91333505       2.97833376      10.00000000
O       13.40250193       7.44583441      10.00000000
Mg      11.91333505       5.95666752      10.00000000
O       13.40250193      10.42416817      10.00000000
Mg      11.91333505       8.93500129      10.00000000
O       13.40250193      13.40250193      10.00000000
Mg      11.91333505      11.91333505      10.00000000
Co       1.22712758       0.94175566      12.07856213
Co       0.55729613       5.49143409      12.58364979
Fe       1.46187448       7.70079211      12.08768367
Fe       1.84029206      10.63215679      12.14055314
Fe       1.48445200      13.30035379      12.08528234
Co       5.48426270       2.50289271      12.57538543
Fe       4.64492006       4.74983908      12.11744745
Co       3.97960560       7.20453641      12.08956665
Fe       4.38506472      10.54854537      12.12825287
Fe       4.15010150      13.04787495      12.17070282
Co       7.55076078       1.94733744      12.07009636
Fe       7.10230507       4.37726724      12.13446490
Co       6.13672191       6.61456136      12.59330551
Fe       7.33775795      10.62468895      12.11678435
Fe       7.66281227      13.03790438      12.19581195
Fe      11.83100500      -0.02181735      12.91960409
Co       9.36860628       5.28702233      12.58439463
Fe      10.82970924       7.21377839      12.17346464
Fe       9.46767257      11.54971356      12.92891658
Fe      10.08470229      13.60456248      12.05408887
Fe      13.63931901       1.27946962      12.10295564
Fe      13.20861894       4.73171421      12.12493335
Fe      13.66285503       7.15511131      12.16550461
Fe      11.80906428      12.46366321      13.03235872
Fe      13.70344854      13.69020706      12.14500412
B        3.02485713       8.97957340      12.64648674
B        5.88409522      11.97095047      12.64555002
