77
Lattice="14.89166881178869 0.0 0.0 0.0 14.89166881178869 0.0 0.0 0.0 41.48916688117887" Properties=species:S:1:pos:R:3 generator=RattleGenerator uuid=74e5cf59-9700-4c2b-9111-93fe4f5dd75c model_energy=-427.0177636435814 uncertainty=0.7602956261577447 acquisition_value=-428.53835489589693 time_stamp=37302.41543674469 search_iteration=75 relaxation_steps=100 relax_index=1 final=1 parent_search_iterations="_JSON [70]" parent_uuids="_JSON [\"33fed385-8af9-4e1c-ac25-aa09dc198c01\"]" spawn_uuids="_JSON [\"418efcdc-ff07-4fb0-b0c9-67eac09394af\"]" evaluator_energy="_JSON {\"75\": -427.05024951410746}" iteration=75 database_id=75 pbc="T T F"
O        1.48916688       1.48916688      10.00000000
Mg       0.00000000       0.00000000      10.00000000
O        1.48916688       4.46750064      10.00000000
Mg       0.00000000       2.97833376      10.00000000
O        1.48916688       7.44583441      10.00000000
Mg       0.00000000       5.95666752      10.00000000
O        1.48916688      10.42416817      10.00000000
Mg       0.00000000       8.93500129      10.00000000
O        1.48916688      13.40250193      10.00000000
Mg       0.00000000      11.91333505      10.00000000
O        4.46750064       1.48916688      10.00000000
Mg       2.97833376       0.00000000      10.00000000
O        4.46750064       4.46750064      10.00000000
Mg       2.97833376       2.97833376      10.00000000
O        4.46750064       7.44583441      10.00000000
Mg       2.97833376       5.95666752      10.00000000
O        4.46750064      10.42416817      10.00000000
Mg       2.97833376       8.93500129      10.00000000
O        4.46750064      13.40250193      10.00000000
Mg       2.97833376      11.91333505      10.00000000
O        7.44583441       1.48916688      10.00000000
Mg       5.95666752       0.00000000      10.00000000
O        7.44583441       4.46750064      10.00000000
Mg       5.95666752       2.97833376      10.00000000
O        7.44583441       7.44583441      10.00000000
Mg       5.95666752       5.95666752      10.00000000
O        7.44583441      10.42416817      10.00000000
Mg       5.95666752       8.93500129      10.00000000
O        7.44583441      13.40250193      10.00000000
Mg       5.95666752      11.91333505      10.00000000
O       10.42416817       1.48916688      10.00000000
Mg       8.93500129       0.00000000      10.00000000
O       10.42416817       4.46750064      10.00000000
Mg       8.93500129       2.97833376      10.00000000
O       10.42416817       7.44583441      10.00000000
Mg       8.93500129       5.95666752      10.00000000
O       10.42416817      10.42416817      10.00000000
Mg       8.93500129       8.93500129      10.00000000
O       10.42416817      13.40250193      10.00000000
Mg       8.93500129      11.91333505      10.00000000
O       13.40250193       1.48916688      10.00000000
Mg      11.91333505       0.00000000      10.00000000
O       13.40250193       4.46750064      10.00000000
Mg      11.91333505       2.97833376      10.00000000
O       13.40250193       7.44583441      10.00000000
Mg      11.91333505       5.95666752      10.00000000
O       13.40250193      10.42416817      10.00000000
Mg      11.91333505       8.93500129      10.00000000
O       13.40250193      13.40250193      10.00000000
Mg      11.91333505      11.91333505      10.00000000
Co       0.06025627      -0.09276505      12.72487160
Co       0.07916488       5.89394977      12.74941483
Fe       1.30656501       7.82518035      12.13705339
Fe       1.93230356      10.45850935      12.13876928
Fe       1.73273633      13.13184248      12.13821853
Co       4.79239127       1.21282411      12.09768396
Fe       4.52985132       4.04623771      12.11871431
Co       5.75723993      12.29096690      12.91331864
Fe       4.73058003      10.40254143      12.11841382
Fe       4.19337675      13.71978193      12.10290026
Co       7.04794157       0.99701716      12.17003945
Fe      10.93100725       5.22418846      12.36388167
Co       8.94380521       9.47311542      12.87499630
Fe       7.28032435      10.77542462      12.06398006
Fe       7.68962622      13.28598338      12.06756279
Fe      10.92772069       0.84310197      12.31930601
Co      11.55370119       3.02213824      12.85296469
Fe      10.51653353       7.74451582      12.15434399
Fe      10.60431798      10.71967283      12.07367292
Fe       8.89333026      14.87458337      13.38148743
Fe      13.28977831       1.60175230      12.14130916
Fe      13.25688259       4.38634589      12.10286939
Fe      12.90499894       6.90706221      12.29876281
Fe      10.27913256      13.26497113      12.12505407
Fe      12.75816264      13.99129092      12.35985990
B        5.98502720       2.71202766      12.48680483
B        8.96646719      11.74434804      12.60461456
