77
Lattice="14.89166881178869 0.0 0.0 0.0 14.89166881178869 0.0 0.0 0.0 41.48916688117887" Properties=species:S:1:pos:R:3 generator=RattleGenerator uuid=83d35704-f4a4-4e91-aaaf-a770c711282f model_energy=-423.0169345859302 uncertainty=1.5724958366653443 acquisition_value=-426.1619262592609 time_stamp=22945.664866685867 search_iteration=37 relaxation_steps=100 relax_index=1 final=1 parent_search_iterations="_JSON [30]" parent_uuids="_JSON [\"c42f81d6-f331-47bf-9e9d-81e6ebdc8706\"]" spawn_uuids="_JSON [\"418efcdc-ff07-4fb0-b0c9-67eac09394af\"]" evaluator_energy="_JSON {\"37\": -422.8337464362604}" iteration=37 database_id=37 pbc="T T F"
O        1.48916688       1.48916688      10.00000000
Mg       0.00000000       0.00000000      10.00000000
O        1.48916688       4.46750064      10.00000000
Mg       0.00000000       2.97833376      10.00000000
O        1.48916688       7.44583441      10.00000000
Mg       0.00000000       5.95666752      10.00000000
O        1.48916688      10.42416817      10.00000000
Mg       0.00000000       8.93500129      10.00000000
O        1.48916688      13.40250193      10.00000000
Mg       0.00000000      11.91333505      10.00000000
O        4.46750064       1.48916688      10.00000000
Mg       2.97833376       0.00000000      10.00000000
O        4.46750064       4.46750064      10.00000000
Mg       2.97833376       2.97833376      10.00000000
O        4.46750064       7.44583441      10.00000000
Mg       2.97833376       5.95666752      10.00000000
O        4.46750064      10.42416817      10.00000000
Mg       2.97833376       8.93500129      10.00000000
O        4.46750064      13.40250193      10.00000000
Mg       2.97833376      11.91333505      10.00000000
O        7.44583441       1.48916688      10.00000000
Mg       5.95666752       0.00000000      10.00000000
O        7.44583441       4.46750064      10.00000000
Mg       5.95666752       2.97833376      10.00000000
O        7.44583441       7.44583441      10.00000000
Mg       5.95666752       5.95666752      10.00000000
O        7.44583441      10.42416817      10.00000000
Mg       5.95666752       8.93500129      10.00000000
O        7.44583441      13.40250193      10.00000000
Mg       5.95666752      11.91333505      10.00000000
O       10.42416817       1.48916688      10.00000000
Mg       8.93500129       0.00000000      10.00000000
O       10.42416817       4.46750064      10.00000000
Mg       8.93500129       2.97833376      10.00000000
O       10.42416817       7.44583441      10.00000000
Mg       8.93500129       5.95666752      10.00000000
O       10.42416817      10.42416817      10.00000000
Mg       8.93500129       8.93500129      10.00000000
O       10.42416817      13.40250193      10.00000000
Mg       8.93500129      11.91333505      10.00000000
O       13.40250193       1.48916688      10.00000000
Mg      11.91333505       0.00000000      10.00000000
O       13.40250193       4.46750064      10.00000000
Mg      11.91333505       2.97833376      10.00000000
O       13.40250193       7.44583441      10.00000000
Mg      11.91333505       5.95666752      10.00000000
O       13.40250193      10.42416817      10.00000000
Mg      11.91333505       8.93500129      10.00000000
O       13.40250193      13.40250193      10.00000000
Mg      11.91333505      11.91333505      10.00000000
Co       0.99421803       1.06418325      12.33600604
Co      -0.13422159       5.98557820      12.79702201
Fe       1.18443411       7.76400211      12.20197430
Fe       1.22835644      10.25500153      12.15489511
Fe       1.19824420      13.56685723      12.17305035
Co       4.36866067       2.02263321      12.23709992
Fe       4.69550158       4.37505322      12.13053121
Co       3.07259124       9.04197544      12.87407412
Fe       4.80873990      10.57486785      12.19030396
Fe       4.77061791      13.09565107      12.21080680
Co       7.89368088       2.15636678      12.38354247
Fe       7.26105231       4.43229048      12.11320181
Co       8.71288140       8.73976053      12.90506271
Fe       7.45803146      10.58233584      12.10749725
Fe       7.30628168      13.09025346      12.15531469
Fe      10.23775850       1.58578188      12.14823921
Co      11.23206696       3.66834442      12.48308177
Fe      10.79821890       7.86393077      12.26007153
Fe      10.13001579      10.34223862      12.12915936
Fe      11.93416252      14.80213388      12.77740946
Fe      13.52227671       1.69922888      12.15433053
Fe      13.43066505       4.23656681      12.11123250
Fe      13.44322774       7.79663088      12.16449174
Fe      13.59092231      10.39583060      12.12524973
Fe      13.60274834      13.03728957      12.19322300
B        6.04421001       2.89999698      12.49711350
B        8.91360084      11.90819484      12.50426844
