77
Lattice="14.89166881178869 0.0 0.0 0.0 14.89166881178869 0.0 0.0 0.0 41.48916688117887" Properties=species:S:1:pos:R:3 generator=RattleGenerator uuid=cee1d2d9-85fd-4a15-a70a-f707df2bbe78 model_energy=-423.52021749900774 uncertainty=1.304385724921528 acquisition_value=-426.1289889488508 time_stamp=26773.430648088455 search_iteration=49 relaxation_steps=100 relax_index=1 final=1 parent_search_iterations="_JSON [28]" parent_uuids="_JSON [\"757b097e-3d1c-4256-8686-45b8282d7c44\"]" spawn_uuids="_JSON [\"418efcdc-ff07-4fb0-b0c9-67eac09394af\"]" evaluator_energy="_JSON {\"49\": -421.78695959467626}" iteration=49 database_id=49 pbc="T T F"
O        1.48916688       1.48916688      10.00000000
Mg       0.00000000       0.00000000      10.00000000
O        1.48916688       4.46750064      10.00000000
Mg       0.00000000       2.97833376      10.00000000
O        1.48916688       7.44583441      10.00000000
Mg       0.00000000       5.95666752      10.00000000
O        1.48916688      10.42416817      10.00000000
Mg       0.00000000       8.93500129      10.00000000
O        1.48916688      13.40250193      10.00000000
Mg       0.00000000      11.91333505      10.00000000
O        4.46750064       1.48916688      10.00000000
Mg       2.97833376       0.00000000      10.00000000
O        4.46750064       4.46750064      10.00000000
Mg       2.97833376       2.97833376      10.00000000
O        4.46750064       7.44583441      10.00000000
Mg       2.97833376       5.95666752      10.00000000
O        4.46750064      10.42416817      10.00000000
Mg       2.97833376       8.93500129      10.00000000
O        4.46750064      13.40250193      10.00000000
Mg       2.97833376      11.91333505      10.00000000
O        7.44583441       1.48916688      10.00000000
Mg       5.95666752       0.00000000      10.00000000
O        7.44583441       4.46750064      10.00000000
Mg       5.95666752       2.97833376      10.00000000
O        7.44583441       7.44583441      10.00000000
Mg       5.95666752       5.95666752      10.00000000
O        7.44583441      10.42416817      10.00000000
Mg       5.95666752       8.93500129      10.00000000
O        7.44583441      13.40250193      10.00000000
Mg       5.95666752      11.91333505      10.00000000
O       10.42416817       1.48916688      10.00000000
Mg       8.93500129       0.00000000      10.00000000
O       10.42416817       4.46750064      10.00000000
Mg       8.93500129       2.97833376      10.00000000
O       10.42416817       7.44583441      10.00000000
Mg       8.93500129       5.95666752      10.00000000
O       10.42416817      10.42416817      10.00000000
Mg       8.93500129       8.93500129      10.00000000
O       10.42416817      13.40250193      10.00000000
Mg       8.93500129      11.91333505      10.00000000
O       13.40250193       1.48916688      10.00000000
Mg      11.91333505       0.00000000      10.00000000
O       13.40250193       4.46750064      10.00000000
Mg      11.91333505       2.97833376      10.00000000
O       13.40250193       7.44583441      10.00000000
Mg      11.91333505       5.95666752      10.00000000
O       13.40250193      10.42416817      10.00000000
Mg      11.91333505       8.93500129      10.00000000
O       13.40250193      13.40250193      10.00000000
Mg      11.91333505      11.91333505      10.00000000
Co       0.31024226      -0.03483341      12.77572532
Co       3.31430592       5.99368719      12.83723436
Fe       1.56375818       7.48926128      12.13970270
Fe       1.51743586      10.64459683      12.12846826
Fe       1.82798332      13.10912306      12.15836935
Co       6.27316860       4.23020785      14.01508150
Fe       4.82025093       4.30491501      12.13823849
Co       5.77261620       6.37104761      12.86183910
Fe       4.05027300      10.69903538      12.16200973
Fe       4.38417231      13.13795661      12.13653549
Co       8.34750565       2.85548263      12.86966609
Fe       7.28046829       4.74863026      12.03725474
Co       8.80714677       9.42283316      12.82049006
Fe       6.42934926       8.71033368      12.92866281
Fe       7.73651439      13.12527359      12.15278454
Fe      10.24132152       1.44227223      12.15366993
Co      11.81808137       3.12437582      12.81105458
Fe      10.75291980       7.94257670      12.19862735
Fe      10.70100986      10.54178065      12.09594438
Fe      10.22844426      13.05098416      12.13851839
Fe      13.46788747       1.55804396      12.14354480
Fe      13.44202602       4.72636605      12.13058928
Fe      13.21214633       7.19396915      12.13201210
Fe      13.12352056      10.19960321      12.14792765
Fe      13.52930131      13.30972683      12.13578533
B        6.38776254       3.02951183      12.46988629
B        8.95094523      11.47332100      12.46420233
