77
Lattice="14.89166881178869 0.0 0.0 0.0 14.89166881178869 0.0 0.0 0.0 41.48916688117887" Properties=species:S:1:pos:R:3 generator=RattleGenerator uuid=c9e8ca5c-2dd8-4ec5-afc5-09d304a3a19f model_energy=-423.4814797509864 uncertainty=1.1204763802855162 acquisition_value=-425.72243251155743 time_stamp=25796.49465727806 search_iteration=46 relaxation_steps=100 relax_index=1 final=1 parent_search_iterations="_JSON [10]" parent_uuids="_JSON [\"d3d46035-5410-4636-aad9-3d42651ccd83\"]" spawn_uuids="_JSON [\"d3d46035-5410-4636-aad9-3d42651ccd83\"]" evaluator_energy="_JSON {\"46\": -422.2132074252152}" iteration=46 database_id=46 pbc="T T F"
O        1.48916688       1.48916688      10.00000000
Mg       0.00000000       0.00000000      10.00000000
O        1.48916688       4.46750064      10.00000000
Mg       0.00000000       2.97833376      10.00000000
O        1.48916688       7.44583441      10.00000000
Mg       0.00000000       5.95666752      10.00000000
O        1.48916688      10.42416817      10.00000000
Mg       0.00000000       8.93500129      10.00000000
O        1.48916688      13.40250193      10.00000000
Mg       0.00000000      11.91333505      10.00000000
O        4.46750064       1.48916688      10.00000000
Mg       2.97833376       0.00000000      10.00000000
O        4.46750064       4.46750064      10.00000000
Mg       2.97833376       2.97833376      10.00000000
O        4.46750064       7.44583441      10.00000000
Mg       2.97833376       5.95666752      10.00000000
O        4.46750064      10.42416817      10.00000000
Mg       2.97833376       8.93500129      10.00000000
O        4.46750064      13.40250193      10.00000000
Mg       2.97833376      11.91333505      10.00000000
O        7.44583441       1.48916688      10.00000000
Mg       5.95666752       0.00000000      10.00000000
O        7.44583441       4.46750064      10.00000000
Mg       5.95666752       2.97833376      10.00000000
O        7.44583441       7.44583441      10.00000000
Mg       5.95666752       5.95666752      10.00000000
O        7.44583441      10.42416817      10.00000000
Mg       5.95666752       8.93500129      10.00000000
O        7.44583441      13.40250193      10.00000000
Mg       5.95666752      11.91333505      10.00000000
O       10.42416817       1.48916688      10.00000000
Mg       8.93500129       0.00000000      10.00000000
O       10.42416817       4.46750064      10.00000000
Mg       8.93500129       2.97833376      10.00000000
O       10.42416817       7.44583441      10.00000000
Mg       8.93500129       5.95666752      10.00000000
O       10.42416817      10.42416817      10.00000000
Mg       8.93500129       8.93500129      10.00000000
O       10.42416817      13.40250193      10.00000000
Mg       8.93500129      11.91333505      10.00000000
O       13.40250193       1.48916688      10.00000000
Mg      11.91333505       0.00000000      10.00000000
O       13.40250193       4.46750064      10.00000000
Mg      11.91333505       2.97833376      10.00000000
O       13.40250193       7.44583441      10.00000000
Mg      11.91333505       5.95666752      10.00000000
O       13.40250193      10.42416817      10.00000000
Mg      11.91333505       8.93500129      10.00000000
O       13.40250193      13.40250193      10.00000000
Mg      11.91333505      11.91333505      10.00000000
Co       0.16773286       2.89904078      12.79904604
Co      -0.03806038       5.89294196      12.82232835
Fe       1.27382642       7.80943026      12.15453672
Fe       1.60343219      10.49218702      12.09174128
Fe       1.27070120      13.08325999      12.12358978
Co       4.37192964       2.00716207      12.25352143
Fe       4.65164049       4.47392436      12.10418272
Co       2.87423641       5.96720323      12.79584123
Fe       4.17407158      10.61589822      12.12414448
Fe       4.69967098      13.07060627      12.12215636
Co       7.44654831       2.00862432      12.24845130
Fe       7.20404649       4.43907067      12.11000283
Co       7.82544264       7.87911236      12.24873858
Fe       7.67319941      10.43935595      12.12200878
Fe       7.49911293      13.02704738      12.13404987
Fe      10.70131242       0.95887114      12.22385230
Co      10.82908093       4.79095770      12.25556246
Fe      10.36687176       7.65586830      12.10312874
Fe      10.57388338      10.44785029      12.06387517
Fe      10.29638100      13.29817139      12.11307109
Fe      13.17265291       1.54335221      12.11098473
Fe      13.22458591       4.13945936      12.12587294
Fe      13.53620094       7.81131071      12.08327903
Fe      13.19405753      10.48374061      12.09534951
Fe      13.55874506      13.09859045      12.13122387
B        5.90212973       3.03515641      12.53811618
B        9.15209541       9.16586213      12.55835541
