77
Lattice="14.89166881178869 0.0 0.0 0.0 14.89166881178869 0.0 0.0 0.0 41.48916688117887" Properties=species:S:1:pos:R:3 generator=RattleGenerator uuid=3a4bc0c0-1df1-43fb-b7d9-b061a8ac1f15 model_energy=-420.683995216023 uncertainty=2.0726962026294706 acquisition_value=-424.8293876212819 time_stamp=20920.274664402008 search_iteration=32 relaxation_steps=100 relax_index=1 final=1 parent_search_iterations="_JSON [12]" parent_uuids="_JSON [\"418efcdc-ff07-4fb0-b0c9-67eac09394af\"]" spawn_uuids="_JSON [\"418efcdc-ff07-4fb0-b0c9-67eac09394af\"]" evaluator_energy="_JSON {\"32\": -421.7761089888136}" iteration=32 database_id=32 pbc="T T F"
O        1.48916688       1.48916688      10.00000000
Mg       0.00000000       0.00000000      10.00000000
O        1.48916688       4.46750064      10.00000000
Mg       0.00000000       2.97833376      10.00000000
O        1.48916688       7.44583441      10.00000000
Mg       0.00000000       5.95666752      10.00000000
O        1.48916688      10.42416817      10.00000000
Mg       0.00000000       8.93500129      10.00000000
O        1.48916688      13.40250193      10.00000000
Mg       0.00000000      11.91333505      10.00000000
O        4.46750064       1.48916688      10.00000000
Mg       2.97833376       0.00000000      10.00000000
O        4.46750064       4.46750064      10.00000000
Mg       2.97833376       2.97833376      10.00000000
O        4.46750064       7.44583441      10.00000000
Mg       2.97833376       5.95666752      10.00000000
O        4.46750064      10.42416817      10.00000000
Mg       2.97833376       8.93500129      10.00000000
O        4.46750064      13.40250193      10.00000000
Mg       2.97833376      11.91333505      10.00000000
O        7.44583441       1.48916688      10.00000000
Mg       5.95666752       0.00000000      10.00000000
O        7.44583441       4.46750064      10.00000000
Mg       5.95666752       2.97833376      10.00000000
O        7.44583441       7.44583441      10.00000000
Mg       5.95666752       5.95666752      10.00000000
O        7.44583441      10.42416817      10.00000000
Mg       5.95666752       8.93500129      10.00000000
O        7.44583441      13.40250193      10.00000000
Mg       5.95666752      11.91333505      10.00000000
O       10.42416817       1.48916688      10.00000000
Mg       8.93500129       0.00000000      10.00000000
O       10.42416817       4.46750064      10.00000000
Mg       8.93500129       2.97833376      10.00000000
O       10.42416817       7.44583441      10.00000000
Mg       8.93500129       5.95666752      10.00000000
O       10.42416817      10.42416817      10.00000000
Mg       8.93500129       8.93500129      10.00000000
O       10.42416817      13.40250193      10.00000000
Mg       8.93500129      11.91333505      10.00000000
O       13.40250193       1.48916688      10.00000000
Mg      11.91333505       0.00000000      10.00000000
O       13.40250193       4.46750064      10.00000000
Mg      11.91333505       2.97833376      10.00000000
O       13.40250193       7.44583441      10.00000000
Mg      11.91333505       5.95666752      10.00000000
O       13.40250193      10.42416817      10.00000000
Mg      11.91333505       8.93500129      10.00000000
O       13.40250193      13.40250193      10.00000000
Mg      11.91333505      11.91333505      10.00000000
Co       1.37615154       1.23553226      12.05322504
Co       0.20043531       3.17806700      12.75107544
Fe       1.75958755       7.53935556      12.14333177
Fe       1.62107507      10.15722631      12.14221311
Fe       1.44532358      13.66861809      12.14428440
Co       2.87720630       3.01272003      12.72663024
Fe       4.34057396       4.73748277      12.14039255
Co       4.27173980       7.45968667      12.05745587
Fe       4.23802696      10.12887860      12.14918984
Fe       4.82846337      13.39941456      12.14679548
Co       9.64441256       2.04139041      14.29285015
Fe       7.64955143       4.35519388      12.13846799
Co       6.11691385       6.04979673      12.73056828
Fe       7.69852444      10.56515819      12.13918736
Fe       7.46921221      13.13764751      12.14495689
Fe      10.41890623       1.75192225      12.13603755
Co      10.33278508       4.23276839      12.07756084
Fe      10.55198697       7.85770003      12.15031097
Fe      10.38220327      10.50103163      12.13176326
Fe      10.49327665      13.11156621      12.12587973
Fe      13.62828224       1.56898727      12.13773639
Fe      13.13586901       4.21743170      12.14928030
Fe      13.18422652       7.73606986      12.14486587
Fe      13.05763575      10.42103530      12.13709331
Fe      13.10470747      13.07469639      12.15477168
B        9.06963258       3.08502479      12.88787838
B        9.01297814      11.90703108      12.83124297
