77
Lattice="14.89166881178869 0.0 0.0 0.0 14.89166881178869 0.0 0.0 0.0 41.48916688117887" Properties=species:S:1:pos:R:3 generator=RattleGenerator uuid=005f4f14-18df-467a-88e4-2a27de2f417a model_energy=-420.4606583076699 uncertainty=2.3750222102114655 acquisition_value=-425.2107027280928 time_stamp=26795.940205335617 search_iteration=30 relaxation_steps=74 relax_index=1 final=1 parent_search_iterations="_JSON [10]" parent_uuids="_JSON [\"b0253dd8-4e3b-4993-8ec3-9fce0f69cb28\"]" spawn_uuids="_JSON [\"b0253dd8-4e3b-4993-8ec3-9fce0f69cb28\"]" evaluator_energy="_JSON {\"30\": -422.43102587899637}" iteration=30 database_id=30 pbc="T T F"
O        1.48916688       1.48916688      10.00000000
Mg       0.00000000       0.00000000      10.00000000
O        1.48916688       4.46750064      10.00000000
Mg       0.00000000       2.97833376      10.00000000
O        1.48916688       7.44583441      10.00000000
Mg       0.00000000       5.95666752      10.00000000
O        1.48916688      10.42416817      10.00000000
Mg       0.00000000       8.93500129      10.00000000
O        1.48916688      13.40250193      10.00000000
Mg       0.00000000      11.91333505      10.00000000
O        4.46750064       1.48916688      10.00000000
Mg       2.97833376       0.00000000      10.00000000
O        4.46750064       4.46750064      10.00000000
Mg       2.97833376       2.97833376      10.00000000
O        4.46750064       7.44583441      10.00000000
Mg       2.97833376       5.95666752      10.00000000
O        4.46750064      10.42416817      10.00000000
Mg       2.97833376       8.93500129      10.00000000
O        4.46750064      13.40250193      10.00000000
Mg       2.97833376      11.91333505      10.00000000
O        7.44583441       1.48916688      10.00000000
Mg       5.95666752       0.00000000      10.00000000
O        7.44583441       4.46750064      10.00000000
Mg       5.95666752       2.97833376      10.00000000
O        7.44583441       7.44583441      10.00000000
Mg       5.95666752       5.95666752      10.00000000
O        7.44583441      10.42416817      10.00000000
Mg       5.95666752       8.93500129      10.00000000
O        7.44583441      13.40250193      10.00000000
Mg       5.95666752      11.91333505      10.00000000
O       10.42416817       1.48916688      10.00000000
Mg       8.93500129       0.00000000      10.00000000
O       10.42416817       4.46750064      10.00000000
Mg       8.93500129       2.97833376      10.00000000
O       10.42416817       7.44583441      10.00000000
Mg       8.93500129       5.95666752      10.00000000
O       10.42416817      10.42416817      10.00000000
Mg       8.93500129       8.93500129      10.00000000
O       10.42416817      13.40250193      10.00000000
Mg       8.93500129      11.91333505      10.00000000
O       13.40250193       1.48916688      10.00000000
Mg      11.91333505       0.00000000      10.00000000
O       13.40250193       4.46750064      10.00000000
Mg      11.91333505       2.97833376      10.00000000
O       13.40250193       7.44583441      10.00000000
Mg      11.91333505       5.95666752      10.00000000
O       13.40250193      10.42416817      10.00000000
Mg      11.91333505       8.93500129      10.00000000
O       13.40250193      13.40250193      10.00000000
Mg      11.91333505      11.91333505      10.00000000
Co       1.21949549       1.20659971      12.07056586
Co       2.19320525       5.15942228      12.12455154
Fe       1.64712349       7.60772939      12.08145454
Fe       1.70472274      10.23893326      12.08128561
Fe       1.23805281      13.64389333      12.12627757
Co       5.71634388       2.49063875      12.44435348
Fe       4.60190257       4.56638007      12.05699205
Co       3.97377120       6.91312232      12.08691863
Fe       4.38768465      10.63353425      12.09687512
Fe       4.67446339      13.30915287      12.05170690
Co       7.94553689       2.08580364      12.07947838
Fe       7.26372411       4.44393897      12.07105460
Co       8.00695144       6.84599990      12.09672964
Fe       7.15908556      10.56211571      12.07136351
Fe       7.37518751      13.14363084      12.08173152
Fe      10.30446132       1.41364400      12.06784224
Co       9.67980782       3.80890187      12.12864235
Fe      10.40996252       7.59823132      12.07000195
Fe      10.60280832      10.18689298      12.11206324
Fe      10.04606691      13.66610873      12.19244697
Fe      13.66025892       1.12608507      12.17798741
Fe      13.39928769       4.60777533      12.07786872
Fe      13.09592396       7.21388895      12.14506523
Fe      13.18976359      10.68753111      12.12341128
Fe      13.51847503      13.34086782      12.07381369
B        3.15143286       8.95852170      12.53907379
B        5.88323088      11.90767475      12.64977182
