77
Lattice="14.89166881178869 0.0 0.0 0.0 14.89166881178869 0.0 0.0 0.0 41.48916688117887" Properties=species:S:1:pos:R:3 generator=RattleGenerator uuid=c1c3f170-0d0a-4972-90e6-81132718cfa6 model_energy=-425.20283690628924 uncertainty=1.0377335265370666 acquisition_value=-427.27830395936337 time_stamp=31786.3948032856 search_iteration=64 relaxation_steps=100 relax_index=1 final=1 parent_search_iterations="_JSON [58]" parent_uuids="_JSON [\"ebaaff15-7023-4718-8e2a-e11be7e7165f\"]" spawn_uuids="_JSON [\"418efcdc-ff07-4fb0-b0c9-67eac09394af\"]" evaluator_energy="_JSON {\"64\": -425.5911939577562}" iteration=64 database_id=64 pbc="T T F"
O        1.48916688       1.48916688      10.00000000
Mg       0.00000000       0.00000000      10.00000000
O        1.48916688       4.46750064      10.00000000
Mg       0.00000000       2.97833376      10.00000000
O        1.48916688       7.44583441      10.00000000
Mg       0.00000000       5.95666752      10.00000000
O        1.48916688      10.42416817      10.00000000
Mg       0.00000000       8.93500129      10.00000000
O        1.48916688      13.40250193      10.00000000
Mg       0.00000000      11.91333505      10.00000000
O        4.46750064       1.48916688      10.00000000
Mg       2.97833376       0.00000000      10.00000000
O        4.46750064       4.46750064      10.00000000
Mg       2.97833376       2.97833376      10.00000000
O        4.46750064       7.44583441      10.00000000
Mg       2.97833376       5.95666752      10.00000000
O        4.46750064      10.42416817      10.00000000
Mg       2.97833376       8.93500129      10.00000000
O        4.46750064      13.40250193      10.00000000
Mg       2.97833376      11.91333505      10.00000000
O        7.44583441       1.48916688      10.00000000
Mg       5.95666752       0.00000000      10.00000000
O        7.44583441       4.46750064      10.00000000
Mg       5.95666752       2.97833376      10.00000000
O        7.44583441       7.44583441      10.00000000
Mg       5.95666752       5.95666752      10.00000000
O        7.44583441      10.42416817      10.00000000
Mg       5.95666752       8.93500129      10.00000000
O        7.44583441      13.40250193      10.00000000
Mg       5.95666752      11.91333505      10.00000000
O       10.42416817       1.48916688      10.00000000
Mg       8.93500129       0.00000000      10.00000000
O       10.42416817       4.46750064      10.00000000
Mg       8.93500129       2.97833376      10.00000000
O       10.42416817       7.44583441      10.00000000
Mg       8.93500129       5.95666752      10.00000000
O       10.42416817      10.42416817      10.00000000
Mg       8.93500129       8.93500129      10.00000000
O       10.42416817      13.40250193      10.00000000
Mg       8.93500129      11.91333505      10.00000000
O       13.40250193       1.48916688      10.00000000
Mg      11.91333505       0.00000000      10.00000000
O       13.40250193       4.46750064      10.00000000
Mg      11.91333505       2.97833376      10.00000000
O       13.40250193       7.44583441      10.00000000
Mg      11.91333505       5.95666752      10.00000000
O       13.40250193      10.42416817      10.00000000
Mg      11.91333505       8.93500129      10.00000000
O       13.40250193      13.40250193      10.00000000
Mg      11.91333505      11.91333505      10.00000000
Co       1.17495008       1.16977215      12.14192805
Co       0.10655580       6.03534146      12.76948432
Fe       1.68745251       7.68562149      12.18263823
Fe       1.72701062      10.71558797      12.19165928
Fe       1.17064921      13.69464159      12.16474609
Co       4.61268929       1.40701102      12.16635386
Fe       4.30459487       3.89505805      12.26131135
Co       3.03989893      12.51538825      12.91842065
Fe       4.76530636      11.01460929      12.29893378
Fe       4.84622651      13.74304876      12.17666519
Co       7.72913645       1.85739217      12.12189457
Fe      10.96547532       4.42570411      12.32321999
Co       9.04621633       9.58040107      13.00950556
Fe       7.24618979      10.67895680      12.09942309
Fe       7.33973768      13.07133571      12.14410165
Fe      10.16360564       1.69571886      12.17603105
Co      12.14403289       2.51193514      13.10224084
Fe      10.53943437       7.77436121      12.24558824
Fe      10.69163916      10.88053451      12.19281959
Fe      11.76335515      15.04518152      13.63672872
Fe      13.68438898       1.04551162      12.16949975
Fe      13.44021351       4.32382988      12.18390083
Fe      12.96914128       6.97288729      12.27033091
Fe      10.18336360      13.38772606      12.23491665
Fe      12.91695253      13.36449794      12.26641908
B        5.99726152       2.81040373      12.53557107
B        8.90142294      11.74246136      12.60432881
