77
Lattice="14.89166881178869 0.0 0.0 0.0 14.89166881178869 0.0 0.0 0.0 41.48916688117887" Properties=species:S:1:pos:R:3 generator=RattleGenerator uuid=976ea757-4993-407a-ab20-6ce4f5b3313b model_energy=-424.39877755649536 uncertainty=0.8950525181636676 acquisition_value=-426.1888825928227 time_stamp=64986.964362859726 search_iteration=65 relaxation_steps=100 relax_index=1 final=1 parent_search_iterations="_JSON [36]" parent_uuids="_JSON [\"a5b29cb9-d8bb-4421-abe4-0929f993fedf\"]" spawn_uuids="_JSON [\"85cc6894-243c-4076-abfc-6f8cd8b773fa\"]" evaluator_energy="_JSON {\"65\": -422.8529259811553}" iteration=65 database_id=65 pbc="T T F"
O        1.48916688       1.48916688      10.00000000
Mg       0.00000000       0.00000000      10.00000000
O        1.48916688       4.46750064      10.00000000
Mg       0.00000000       2.97833376      10.00000000
O        1.48916688       7.44583441      10.00000000
Mg       0.00000000       5.95666752      10.00000000
O        1.48916688      10.42416817      10.00000000
Mg       0.00000000       8.93500129      10.00000000
O        1.48916688      13.40250193      10.00000000
Mg       0.00000000      11.91333505      10.00000000
O        4.46750064       1.48916688      10.00000000
Mg       2.97833376       0.00000000      10.00000000
O        4.46750064       4.46750064      10.00000000
Mg       2.97833376       2.97833376      10.00000000
O        4.46750064       7.44583441      10.00000000
Mg       2.97833376       5.95666752      10.00000000
O        4.46750064      10.42416817      10.00000000
Mg       2.97833376       8.93500129      10.00000000
O        4.46750064      13.40250193      10.00000000
Mg       2.97833376      11.91333505      10.00000000
O        7.44583441       1.48916688      10.00000000
Mg       5.95666752       0.00000000      10.00000000
O        7.44583441       4.46750064      10.00000000
Mg       5.95666752       2.97833376      10.00000000
O        7.44583441       7.44583441      10.00000000
Mg       5.95666752       5.95666752      10.00000000
O        7.44583441      10.42416817      10.00000000
Mg       5.95666752       8.93500129      10.00000000
O        7.44583441      13.40250193      10.00000000
Mg       5.95666752      11.91333505      10.00000000
O       10.42416817       1.48916688      10.00000000
Mg       8.93500129       0.00000000      10.00000000
O       10.42416817       4.46750064      10.00000000
Mg       8.93500129       2.97833376      10.00000000
O       10.42416817       7.44583441      10.00000000
Mg       8.93500129       5.95666752      10.00000000
O       10.42416817      10.42416817      10.00000000
Mg       8.93500129       8.93500129      10.00000000
O       10.42416817      13.40250193      10.00000000
Mg       8.93500129      11.91333505      10.00000000
O       13.40250193       1.48916688      10.00000000
Mg      11.91333505       0.00000000      10.00000000
O       13.40250193       4.46750064      10.00000000
Mg      11.91333505       2.97833376      10.00000000
O       13.40250193       7.44583441      10.00000000
Mg      11.91333505       5.95666752      10.00000000
O       13.40250193      10.42416817      10.00000000
Mg      11.91333505       8.93500129      10.00000000
O       13.40250193      13.40250193      10.00000000
Mg      11.91333505      11.91333505      10.00000000
Co       0.02751051       0.03187564      12.71970208
Co       1.19134396       4.46569987      11.98771261
Fe       1.51811207       7.42595566      12.15515412
Fe       0.96447856       9.93479512      12.24640129
Fe       1.41372059      13.16840349      12.08447414
Co       4.47877680       1.09747071      12.01213937
Fe       2.24406058       0.61684979      12.39091436
Co       4.57277221       7.47846240      12.00207855
Fe       3.11034322      11.31564067      12.56725035
Fe       4.00434409      13.67057142      12.07002025
Co       7.77375428       1.59381423      12.03277509
Fe       9.50998744       3.58977145      12.44371054
Co       8.97843507       5.89687055      12.71329024
Fe       7.57637807       7.52844485      12.10835816
Fe       6.40492436      14.49994104      12.48158003
Fe      10.46670810       1.27386182      12.08937920
Co      11.77996543       3.03766592      12.71820347
Fe      10.14665048       7.83147504      12.09105454
Fe      10.71716841      10.57585264      12.05706013
Fe      10.77766725      13.38807344      12.04602306
Fe      13.21569340       1.41894589      12.06629135
Fe      13.73346950       4.04380108      12.06162056
Fe      14.04198697       8.19572532      12.38717292
Fe      13.37936565      10.63870044      12.08518785
Fe      13.36639326      13.31347067      12.12914048
B        8.14846901       4.41766348      13.60887471
B       11.99578858      11.95107213      12.73321932
