75
Lattice="14.89166881178869 0.0 0.0 0.0 14.89166881178869 0.0 0.0 0.0 41.48916688117887" Properties=species:S:1:pos:R:3 generator=HeteroStructRandomize uuid=f8997261-96a6-4f3d-b365-8578309f5d70 model_energy=-402.6117760467382 uncertainty=4.9489491880774725 acquisition_value=-412.50967442289317 time_stamp=140448.31970453262 search_iteration=22 relaxation_steps=19 relax_index=1 final=1 parent_search_iterations="_JSON []" parent_uuids="_JSON []" spawn_uuids="_JSON [\"f8997261-96a6-4f3d-b365-8578309f5d70\"]" evaluator_energy="_JSON {\"22\": -404.81009716230443}" iteration=22 database_id=13 pbc="T T F"
O        1.48916688       1.48916688      10.00000000
Mg       0.00000000       0.00000000      10.00000000
O        1.48916688       4.46750064      10.00000000
Mg       0.00000000       2.97833376      10.00000000
O        1.48916688       7.44583441      10.00000000
Mg       0.00000000       5.95666752      10.00000000
O        1.48916688      10.42416817      10.00000000
Mg       0.00000000       8.93500129      10.00000000
O        1.48916688      13.40250193      10.00000000
Mg       0.00000000      11.91333505      10.00000000
O        4.46750064       1.48916688      10.00000000
Mg       2.97833376       0.00000000      10.00000000
O        4.46750064       4.46750064      10.00000000
Mg       2.97833376       2.97833376      10.00000000
O        4.46750064       7.44583441      10.00000000
Mg       2.97833376       5.95666752      10.00000000
O        4.46750064      10.42416817      10.00000000
Mg       2.97833376       8.93500129      10.00000000
O        4.46750064      13.40250193      10.00000000
Mg       2.97833376      11.91333505      10.00000000
O        7.44583441       1.48916688      10.00000000
Mg       5.95666752       0.00000000      10.00000000
O        7.44583441       4.46750064      10.00000000
Mg       5.95666752       2.97833376      10.00000000
O        7.44583441       7.44583441      10.00000000
Mg       5.95666752       5.95666752      10.00000000
O        7.44583441      10.42416817      10.00000000
Mg       5.95666752       8.93500129      10.00000000
O        7.44583441      13.40250193      10.00000000
Mg       5.95666752      11.91333505      10.00000000
O       10.42416817       1.48916688      10.00000000
Mg       8.93500129       0.00000000      10.00000000
O       10.42416817       4.46750064      10.00000000
Mg       8.93500129       2.97833376      10.00000000
O       10.42416817       7.44583441      10.00000000
Mg       8.93500129       5.95666752      10.00000000
O       10.42416817      10.42416817      10.00000000
Mg       8.93500129       8.93500129      10.00000000
O       10.42416817      13.40250193      10.00000000
Mg       8.93500129      11.91333505      10.00000000
O       13.40250193       1.48916688      10.00000000
Mg      11.91333505       0.00000000      10.00000000
O       13.40250193       4.46750064      10.00000000
Mg      11.91333505       2.97833376      10.00000000
O       13.40250193       7.44583441      10.00000000
Mg      11.91333505       5.95666752      10.00000000
O       13.40250193      10.42416817      10.00000000
Mg      11.91333505       8.93500129      10.00000000
O       13.40250193      13.40250193      10.00000000
Mg      11.91333505      11.91333505      10.00000000
Co       1.46791850       1.47466448      12.17334495
Co       1.48956313       4.49409801      12.17052780
Fe       1.51903005       7.41024002      12.08440977
Fe       1.50926843      10.41815599      12.08675952
Fe       1.50398713      13.44025593      12.08869744
Co       4.47061543       1.49289900      12.17543301
Fe       4.44828297       4.45929530      12.08980671
Co       4.45361937       7.44661073      12.16947235
Fe       4.48667763      10.39710883      12.08989948
Fe       4.47504002      13.45391115      12.08855488
Co       7.47491078       1.49712928      12.17140763
Fe       7.45385891       4.47134573      12.08920367
Co       7.46839008       7.44544255      12.16926637
Fe       7.44322972      10.39686812      12.09045166
Fe       7.43349458      13.44773927      12.08899384
Fe      10.39942052       1.53136640      12.08841109
Co      10.42895897       4.47114196      12.16440219
Fe      10.40211610       7.41737621      12.08928878
Fe      10.41569648      10.41535352      12.08544359
Fe      10.42549450      13.42135496      12.08968813
Fe      13.42666710       1.51386926      12.08997761
Fe      13.41007623       4.45733275      12.08784892
Fe      13.40988771       7.42621914      12.09019609
Fe      13.41524598      10.42667339      12.09105026
Fe      13.41571417      13.42332099      12.09271362
