75
Lattice="14.89166881178869 0.0 0.0 0.0 14.89166881178869 0.0 0.0 0.0 41.48916688117887" Properties=species:S:1:pos:R:3 generator=HeteroStructRandomize uuid=b850aa66-9085-432d-a436-5d28285d08dc model_energy=-405.99293813339017 uncertainty=1.574742446282468 acquisition_value=-409.1424230259551 time_stamp=22966.72225189209 search_iteration=23 relaxation_steps=85 relax_index=1 final=1 parent_search_iterations="_JSON []" parent_uuids="_JSON []" spawn_uuids="_JSON [\"b850aa66-9085-432d-a436-5d28285d08dc\"]" evaluator_energy="_JSON {\"23\": -406.0545118302015}" iteration=23 database_id=23 pbc="T T F"
O        1.48916688       1.48916688      10.00000000
Mg       0.00000000       0.00000000      10.00000000
O        1.48916688       4.46750064      10.00000000
Mg       0.00000000       2.97833376      10.00000000
O        1.48916688       7.44583441      10.00000000
Mg       0.00000000       5.95666752      10.00000000
O        1.48916688      10.42416817      10.00000000
Mg       0.00000000       8.93500129      10.00000000
O        1.48916688      13.40250193      10.00000000
Mg       0.00000000      11.91333505      10.00000000
O        4.46750064       1.48916688      10.00000000
Mg       2.97833376       0.00000000      10.00000000
O        4.46750064       4.46750064      10.00000000
Mg       2.97833376       2.97833376      10.00000000
O        4.46750064       7.44583441      10.00000000
Mg       2.97833376       5.95666752      10.00000000
O        4.46750064      10.42416817      10.00000000
Mg       2.97833376       8.93500129      10.00000000
O        4.46750064      13.40250193      10.00000000
Mg       2.97833376      11.91333505      10.00000000
O        7.44583441       1.48916688      10.00000000
Mg       5.95666752       0.00000000      10.00000000
O        7.44583441       4.46750064      10.00000000
Mg       5.95666752       2.97833376      10.00000000
O        7.44583441       7.44583441      10.00000000
Mg       5.95666752       5.95666752      10.00000000
O        7.44583441      10.42416817      10.00000000
Mg       5.95666752       8.93500129      10.00000000
O        7.44583441      13.40250193      10.00000000
Mg       5.95666752      11.91333505      10.00000000
O       10.42416817       1.48916688      10.00000000
Mg       8.93500129       0.00000000      10.00000000
O       10.42416817       4.46750064      10.00000000
Mg       8.93500129       2.97833376      10.00000000
O       10.42416817       7.44583441      10.00000000
Mg       8.93500129       5.95666752      10.00000000
O       10.42416817      10.42416817      10.00000000
Mg       8.93500129       8.93500129      10.00000000
O       10.42416817      13.40250193      10.00000000
Mg       8.93500129      11.91333505      10.00000000
O       13.40250193       1.48916688      10.00000000
Mg      11.91333505       0.00000000      10.00000000
O       13.40250193       4.46750064      10.00000000
Mg      11.91333505       2.97833376      10.00000000
O       13.40250193       7.44583441      10.00000000
Mg      11.91333505       5.95666752      10.00000000
O       13.40250193      10.42416817      10.00000000
Mg      11.91333505       8.93500129      10.00000000
O       13.40250193      13.40250193      10.00000000
Mg      11.91333505      11.91333505      10.00000000
Co       1.42748957       1.43279686      12.14744269
Co       1.36948663       4.52594474      12.15595316
Fe       1.65877729       7.55102389      12.09307565
Fe       1.78722911      10.09334647      12.07200701
Fe       1.28531292      13.54625952      12.09244560
Co       4.50527949       1.50672140      12.14735913
Fe       4.69783882       4.40721997      12.08715435
Co       4.43517569       7.44908658      12.14612165
Fe       4.27483773      10.22383136      12.08597293
Fe       4.67619508      13.63118613      12.08118720
Co       7.45060057       1.50485589      12.14431175
Fe       7.17960619       4.45243685      12.08498491
Co       7.44315731       7.44829809      12.14794167
Fe       7.65750162      10.24933340      12.08986776
Fe       7.14818647      13.63691767      12.07774264
Fe      10.24063467       1.65626295      12.09356634
Co      10.54504249       4.45706434      12.15137491
Fe      10.62251341       7.25970752      12.08467978
Fe      10.13841199      10.63796385      12.07751058
Fe      10.39101842      13.16262207      12.09386091
Fe      13.58436229       1.84332651      12.07819309
Fe      13.42325563       4.44535216      12.09990940
Fe      13.14828686       7.08667993      12.07714668
Fe      13.43949000      10.66109590      12.09648720
Fe      13.69060575      13.20466862      12.08111588
