75
Lattice="14.89166881178869 0.0 0.0 0.0 14.89166881178869 0.0 0.0 0.0 41.48916688117887" Properties=species:S:1:pos:R:3 generator=HeteroStructRandomize uuid=bce2c292-7bc2-4479-9064-0129045bb6af model_energy=-404.1987269937039 uncertainty=3.321592299353399 acquisition_value=-410.84191159241067 time_stamp=31153.915023326874 search_iteration=23 relaxation_steps=66 relax_index=1 final=1 parent_search_iterations="_JSON []" parent_uuids="_JSON []" spawn_uuids="_JSON [\"bce2c292-7bc2-4479-9064-0129045bb6af\"]" evaluator_energy="_JSON {\"23\": -406.551727241862}" iteration=23 database_id=23 pbc="T T F"
O        1.48916688       1.48916688      10.00000000
Mg       0.00000000       0.00000000      10.00000000
O        1.48916688       4.46750064      10.00000000
Mg       0.00000000       2.97833376      10.00000000
O        1.48916688       7.44583441      10.00000000
Mg       0.00000000       5.95666752      10.00000000
O        1.48916688      10.42416817      10.00000000
Mg       0.00000000       8.93500129      10.00000000
O        1.48916688      13.40250193      10.00000000
Mg       0.00000000      11.91333505      10.00000000
O        4.46750064       1.48916688      10.00000000
Mg       2.97833376       0.00000000      10.00000000
O        4.46750064       4.46750064      10.00000000
Mg       2.97833376       2.97833376      10.00000000
O        4.46750064       7.44583441      10.00000000
Mg       2.97833376       5.95666752      10.00000000
O        4.46750064      10.42416817      10.00000000
Mg       2.97833376       8.93500129      10.00000000
O        4.46750064      13.40250193      10.00000000
Mg       2.97833376      11.91333505      10.00000000
O        7.44583441       1.48916688      10.00000000
Mg       5.95666752       0.00000000      10.00000000
O        7.44583441       4.46750064      10.00000000
Mg       5.95666752       2.97833376      10.00000000
O        7.44583441       7.44583441      10.00000000
Mg       5.95666752       5.95666752      10.00000000
O        7.44583441      10.42416817      10.00000000
Mg       5.95666752       8.93500129      10.00000000
O        7.44583441      13.40250193      10.00000000
Mg       5.95666752      11.91333505      10.00000000
O       10.42416817       1.48916688      10.00000000
Mg       8.93500129       0.00000000      10.00000000
O       10.42416817       4.46750064      10.00000000
Mg       8.93500129       2.97833376      10.00000000
O       10.42416817       7.44583441      10.00000000
Mg       8.93500129       5.95666752      10.00000000
O       10.42416817      10.42416817      10.00000000
Mg       8.93500129       8.93500129      10.00000000
O       10.42416817      13.40250193      10.00000000
Mg       8.93500129      11.91333505      10.00000000
O       13.40250193       1.48916688      10.00000000
Mg      11.91333505       0.00000000      10.00000000
O       13.40250193       4.46750064      10.00000000
Mg      11.91333505       2.97833376      10.00000000
O       13.40250193       7.44583441      10.00000000
Mg      11.91333505       5.95666752      10.00000000
O       13.40250193      10.42416817      10.00000000
Mg      11.91333505       8.93500129      10.00000000
O       13.40250193      13.40250193      10.00000000
Mg      11.91333505      11.91333505      10.00000000
Co       1.82336870       1.49972019      12.07993985
Co       1.86913718       4.72056998      12.08019693
Fe       1.86695077       7.04041785      12.14571296
Fe       1.76053432      10.74182776      12.16553323
Fe       1.19397030      13.07733851      12.16234360
Co       4.18398687       1.79868680      12.07273539
Fe       4.09041371       4.09734454      12.14541520
Co       4.10710153       7.42079954      12.08403764
Fe       4.11666335      10.74862203      12.16292293
Fe       4.28028216      13.09898815      12.17278037
Co       7.78966414       1.23146243      12.08255319
Fe       7.80798874       4.62590800      12.16179802
Co       7.47456531       7.78954450      12.08266910
Fe       7.71585275      10.05871680      12.15869804
Fe       7.78477974      13.79842894      12.15309064
Fe      10.03525465       1.81491949      12.14425142
Co      10.04055187       4.12747315      12.07815961
Fe      10.75824400       7.72657365      12.16252031
Fe      10.73975363      10.11448603      12.16275914
Fe      10.11031227      13.67068799      12.16805335
Fe      13.60904885       1.16315419      12.17367726
Fe      13.28437171       4.81091405      12.17002513
Fe      13.06051083       7.13786961      12.16232624
Fe      13.03448502      10.77672106      12.16341778
Fe      13.69880175      13.06882542      12.16025428
