75
Lattice="14.89166881178869 0.0 0.0 0.0 14.89166881178869 0.0 0.0 0.0 41.48916688117887" Properties=species:S:1:pos:R:3 generator=RattleGenerator uuid=ae2829b7-e7e2-4a14-8874-9646f7eaee3b model_energy=-421.1777410708385 uncertainty=0.4358550010774134 acquisition_value=-422.04945107299335 time_stamp=51848.91284203529 search_iteration=92 relaxation_steps=100 relax_index=1 final=1 parent_search_iterations="_JSON [89]" parent_uuids="_JSON [\"8f46fc9e-11f5-46f4-8472-a0b3c9d441dd\"]" spawn_uuids="_JSON [\"2467c262-52dd-4a93-b933-9b98d5574695\"]" evaluator_energy="_JSON {\"92\": -421.12625871844233}" iteration=92 database_id=92 pbc="T T F"
O        1.48916688       1.48916688      10.00000000
Mg       0.00000000       0.00000000      10.00000000
O        1.48916688       4.46750064      10.00000000
Mg       0.00000000       2.97833376      10.00000000
O        1.48916688       7.44583441      10.00000000
Mg       0.00000000       5.95666752      10.00000000
O        1.48916688      10.42416817      10.00000000
Mg       0.00000000       8.93500129      10.00000000
O        1.48916688      13.40250193      10.00000000
Mg       0.00000000      11.91333505      10.00000000
O        4.46750064       1.48916688      10.00000000
Mg       2.97833376       0.00000000      10.00000000
O        4.46750064       4.46750064      10.00000000
Mg       2.97833376       2.97833376      10.00000000
O        4.46750064       7.44583441      10.00000000
Mg       2.97833376       5.95666752      10.00000000
O        4.46750064      10.42416817      10.00000000
Mg       2.97833376       8.93500129      10.00000000
O        4.46750064      13.40250193      10.00000000
Mg       2.97833376      11.91333505      10.00000000
O        7.44583441       1.48916688      10.00000000
Mg       5.95666752       0.00000000      10.00000000
O        7.44583441       4.46750064      10.00000000
Mg       5.95666752       2.97833376      10.00000000
O        7.44583441       7.44583441      10.00000000
Mg       5.95666752       5.95666752      10.00000000
O        7.44583441      10.42416817      10.00000000
Mg       5.95666752       8.93500129      10.00000000
O        7.44583441      13.40250193      10.00000000
Mg       5.95666752      11.91333505      10.00000000
O       10.42416817       1.48916688      10.00000000
Mg       8.93500129       0.00000000      10.00000000
O       10.42416817       4.46750064      10.00000000
Mg       8.93500129       2.97833376      10.00000000
O       10.42416817       7.44583441      10.00000000
Mg       8.93500129       5.95666752      10.00000000
O       10.42416817      10.42416817      10.00000000
Mg       8.93500129       8.93500129      10.00000000
O       10.42416817      13.40250193      10.00000000
Mg       8.93500129      11.91333505      10.00000000
O       13.40250193       1.48916688      10.00000000
Mg      11.91333505       0.00000000      10.00000000
O       13.40250193       4.46750064      10.00000000
Mg      11.91333505       2.97833376      10.00000000
O       13.40250193       7.44583441      10.00000000
Mg      11.91333505       5.95666752      10.00000000
O       13.40250193      10.42416817      10.00000000
Mg      11.91333505       8.93500129      10.00000000
O       13.40250193      13.40250193      10.00000000
Mg      11.91333505      11.91333505      10.00000000
Co       1.63615643      -4.56580685      12.34414796
Co       0.55856135       5.31162434      12.68344641
Fe       1.32154167       7.49166658      12.19186842
Fe       2.80684840       6.15331911      13.42942414
Fe       0.06923596       8.89532565      13.47965749
Co       7.58881116       1.34402877      12.04240142
Fe       2.94629305       8.89700476      13.45344895
Co       3.85793030      14.05569587      13.88490663
Fe       4.43819573      10.56229351      12.19609214
Fe       3.03669429      11.85687667      13.47095392
Co      14.32861264       6.61460795      14.25687456
Fe       9.04533025       2.84954314      13.39253599
Co       6.71758263      11.14907033      12.39598309
Fe       4.76082374      13.12631989      12.01123830
Fe       5.54099089      12.36246213      13.92744583
Fe      10.37947295       1.49945675      12.12987014
Co      10.53662834       4.29517057      12.04592285
Fe      11.94723141       5.80805433      13.46678068
Fe       6.07446945      14.87857504      13.42329986
Fe       8.83126425      15.00980844      13.44858485
Fe      11.77706564       3.06375135      13.44132164
Fe      13.28019578       4.57708591      12.03533418
Fe      13.80633323       4.32114687      14.22724376
Fe      13.70211617       7.09809467      12.17108498
Fe       7.31970223      13.42394060      12.17089429
