75
Lattice="14.89166881178869 0.0 0.0 0.0 14.89166881178869 0.0 0.0 0.0 41.48916688117887" Properties=species:S:1:pos:R:3 generator=RattleGenerator uuid=1c5f30d6-7eec-4096-bdf5-238b263d86e7 model_energy=-407.7985658251019 uncertainty=0.9397503762255481 acquisition_value=-409.678066577553 time_stamp=40728.24829411507 search_iteration=36 relaxation_steps=91 relax_index=1 final=1 parent_search_iterations="_JSON [15]" parent_uuids="_JSON [\"7cb4edaa-b674-41aa-81b8-4b7b7c125b1f\"]" spawn_uuids="_JSON [\"7cb4edaa-b674-41aa-81b8-4b7b7c125b1f\"]" evaluator_energy="_JSON {\"36\": -409.0452555846281}" iteration=36 database_id=36 pbc="T T F"
O        1.48916688       1.48916688      10.00000000
Mg       0.00000000       0.00000000      10.00000000
O        1.48916688       4.46750064      10.00000000
Mg       0.00000000       2.97833376      10.00000000
O        1.48916688       7.44583441      10.00000000
Mg       0.00000000       5.95666752      10.00000000
O        1.48916688      10.42416817      10.00000000
Mg       0.00000000       8.93500129      10.00000000
O        1.48916688      13.40250193      10.00000000
Mg       0.00000000      11.91333505      10.00000000
O        4.46750064       1.48916688      10.00000000
Mg       2.97833376       0.00000000      10.00000000
O        4.46750064       4.46750064      10.00000000
Mg       2.97833376       2.97833376      10.00000000
O        4.46750064       7.44583441      10.00000000
Mg       2.97833376       5.95666752      10.00000000
O        4.46750064      10.42416817      10.00000000
Mg       2.97833376       8.93500129      10.00000000
O        4.46750064      13.40250193      10.00000000
Mg       2.97833376      11.91333505      10.00000000
O        7.44583441       1.48916688      10.00000000
Mg       5.95666752       0.00000000      10.00000000
O        7.44583441       4.46750064      10.00000000
Mg       5.95666752       2.97833376      10.00000000
O        7.44583441       7.44583441      10.00000000
Mg       5.95666752       5.95666752      10.00000000
O        7.44583441      10.42416817      10.00000000
Mg       5.95666752       8.93500129      10.00000000
O        7.44583441      13.40250193      10.00000000
Mg       5.95666752      11.91333505      10.00000000
O       10.42416817       1.48916688      10.00000000
Mg       8.93500129       0.00000000      10.00000000
O       10.42416817       4.46750064      10.00000000
Mg       8.93500129       2.97833376      10.00000000
O       10.42416817       7.44583441      10.00000000
Mg       8.93500129       5.95666752      10.00000000
O       10.42416817      10.42416817      10.00000000
Mg       8.93500129       8.93500129      10.00000000
O       10.42416817      13.40250193      10.00000000
Mg       8.93500129      11.91333505      10.00000000
O       13.40250193       1.48916688      10.00000000
Mg      11.91333505       0.00000000      10.00000000
O       13.40250193       4.46750064      10.00000000
Mg      11.91333505       2.97833376      10.00000000
O       13.40250193       7.44583441      10.00000000
Mg      11.91333505       5.95666752      10.00000000
O       13.40250193      10.42416817      10.00000000
Mg      11.91333505       8.93500129      10.00000000
O       13.40250193      13.40250193      10.00000000
Mg      11.91333505      11.91333505      10.00000000
Co       1.18322721       1.00269282      12.06657589
Co       1.77686705       4.79681495      12.06884610
Fe       1.77406130       7.19718131      12.07836956
Fe       1.76444224      10.81463373      12.09566474
Fe       1.74815831      13.38996291      12.06845030
Co       4.32428620       1.99435934      12.08842043
Fe       4.16293171       4.49793293      12.07557194
Co       4.13381238       6.97199059      12.06691147
Fe       4.29473466      10.74406738      12.07176154
Fe       4.22143187      13.16626013      12.06986343
Co       7.80215021       1.85375271      12.06782076
Fe       7.69652617       4.22211764      12.07769466
Co      10.77188564       7.87704669      12.05288447
Fe       7.22851306      10.71473212      12.08063255
Fe       7.61927788      13.11436308      12.07938182
Fe      10.19243781       1.72236259      12.07922380
Co      10.07799056       4.10840175      12.05777580
Fe      11.38948474       5.81179461      12.83168115
Fe      10.77304719      10.35545349      12.07990324
Fe      10.57118390      13.09890014      12.07570173
Fe      13.66580388       1.21241948      12.08431367
Fe      13.34103739       4.76603568      12.09252696
Fe      13.10288873       7.24460601      12.07293523
Fe      13.18877709      10.77261763      12.08224880
Fe      13.07067969      13.26460456      12.07530151
