75
Lattice="14.89166881178869 0.0 0.0 0.0 14.89166881178869 0.0 0.0 0.0 41.48916688117887" Properties=species:S:1:pos:R:3 generator=HeteroStructRandomize uuid=e2d75641-f960-44ed-84d7-421db1b02536 model_energy=-404.538169238745 uncertainty=2.5185651018713338 acquisition_value=-409.5752994424877 time_stamp=19489.121801137924 search_iteration=19 relaxation_steps=66 relax_index=1 final=1 parent_search_iterations="_JSON []" parent_uuids="_JSON []" spawn_uuids="_JSON [\"e2d75641-f960-44ed-84d7-421db1b02536\"]" evaluator_energy="_JSON {\"19\": -406.5034683108582}" iteration=19 database_id=19 pbc="T T F"
O        1.48916688       1.48916688      10.00000000
Mg       0.00000000       0.00000000      10.00000000
O        1.48916688       4.46750064      10.00000000
Mg       0.00000000       2.97833376      10.00000000
O        1.48916688       7.44583441      10.00000000
Mg       0.00000000       5.95666752      10.00000000
O        1.48916688      10.42416817      10.00000000
Mg       0.00000000       8.93500129      10.00000000
O        1.48916688      13.40250193      10.00000000
Mg       0.00000000      11.91333505      10.00000000
O        4.46750064       1.48916688      10.00000000
Mg       2.97833376       0.00000000      10.00000000
O        4.46750064       4.46750064      10.00000000
Mg       2.97833376       2.97833376      10.00000000
O        4.46750064       7.44583441      10.00000000
Mg       2.97833376       5.95666752      10.00000000
O        4.46750064      10.42416817      10.00000000
Mg       2.97833376       8.93500129      10.00000000
O        4.46750064      13.40250193      10.00000000
Mg       2.97833376      11.91333505      10.00000000
O        7.44583441       1.48916688      10.00000000
Mg       5.95666752       0.00000000      10.00000000
O        7.44583441       4.46750064      10.00000000
Mg       5.95666752       2.97833376      10.00000000
O        7.44583441       7.44583441      10.00000000
Mg       5.95666752       5.95666752      10.00000000
O        7.44583441      10.42416817      10.00000000
Mg       5.95666752       8.93500129      10.00000000
O        7.44583441      13.40250193      10.00000000
Mg       5.95666752      11.91333505      10.00000000
O       10.42416817       1.48916688      10.00000000
Mg       8.93500129       0.00000000      10.00000000
O       10.42416817       4.46750064      10.00000000
Mg       8.93500129       2.97833376      10.00000000
O       10.42416817       7.44583441      10.00000000
Mg       8.93500129       5.95666752      10.00000000
O       10.42416817      10.42416817      10.00000000
Mg       8.93500129       8.93500129      10.00000000
O       10.42416817      13.40250193      10.00000000
Mg       8.93500129      11.91333505      10.00000000
O       13.40250193       1.48916688      10.00000000
Mg      11.91333505       0.00000000      10.00000000
O       13.40250193       4.46750064      10.00000000
Mg      11.91333505       2.97833376      10.00000000
O       13.40250193       7.44583441      10.00000000
Mg      11.91333505       5.95666752      10.00000000
O       13.40250193      10.42416817      10.00000000
Mg      11.91333505       8.93500129      10.00000000
O       13.40250193      13.40250193      10.00000000
Mg      11.91333505      11.91333505      10.00000000
Co       1.07297175       1.79464269      12.22546878
Co       1.10338403       4.58736060      12.16663643
Fe       1.71774864       7.17091205      12.08854436
Fe       1.20112455      10.60635373      12.08656350
Fe       1.49566140      13.23085688      12.08986143
Co       4.67984464       1.86750144      12.19202961
Fe       4.62812505       4.46081348      12.09007421
Co       4.37337870       7.04860895      12.17210919
Fe       4.62381590      10.60455861      12.08865702
Fe       4.21198398      13.20011366      12.08569805
Co       7.16779275       1.86894240      12.20593980
Fe       7.23722718       4.47391821      12.09713261
Co       7.10724577       7.05775781      12.23145001
Fe       7.26776232      10.60737592      12.08805171
Fe       7.62650410      13.20621749      12.08590471
Fe      10.68341847       1.58412837      12.08866427
Co      10.79744739       4.13608155      12.21937610
Fe      10.60143366       7.69536668      12.08614271
Fe      10.64335124      10.41448388      12.08921243
Fe      10.26359817      13.11419380      12.08425711
Fe      13.37428102       1.55413788      12.09168642
Fe      13.39774302       4.25720308      12.09028337
Fe      13.24406528       7.65071176      12.08751380
Fe      13.37754735      10.30160578      12.09108104
Fe      13.72232988      13.74836580      12.08417260
