75
Lattice="14.89166881178869 0.0 0.0 0.0 14.89166881178869 0.0 0.0 0.0 41.48916688117887" Properties=species:S:1:pos:R:3 generator=HeteroStructRandomize uuid=2879edf9-6b26-470c-9934-4a0a514de8b3 model_energy=-403.9554774022277 uncertainty=2.7703312399903206 acquisition_value=-409.49613988220835 time_stamp=21554.48562192917 search_iteration=21 relaxation_steps=100 relax_index=1 final=1 parent_search_iterations="_JSON []" parent_uuids="_JSON []" spawn_uuids="_JSON [\"2879edf9-6b26-470c-9934-4a0a514de8b3\"]" evaluator_energy="_JSON {\"21\": -406.43327994622416}" iteration=21 database_id=21 pbc="T T F"
O        1.48916688       1.48916688      10.00000000
Mg       0.00000000       0.00000000      10.00000000
O        1.48916688       4.46750064      10.00000000
Mg       0.00000000       2.97833376      10.00000000
O        1.48916688       7.44583441      10.00000000
Mg       0.00000000       5.95666752      10.00000000
O        1.48916688      10.42416817      10.00000000
Mg       0.00000000       8.93500129      10.00000000
O        1.48916688      13.40250193      10.00000000
Mg       0.00000000      11.91333505      10.00000000
O        4.46750064       1.48916688      10.00000000
Mg       2.97833376       0.00000000      10.00000000
O        4.46750064       4.46750064      10.00000000
Mg       2.97833376       2.97833376      10.00000000
O        4.46750064       7.44583441      10.00000000
Mg       2.97833376       5.95666752      10.00000000
O        4.46750064      10.42416817      10.00000000
Mg       2.97833376       8.93500129      10.00000000
O        4.46750064      13.40250193      10.00000000
Mg       2.97833376      11.91333505      10.00000000
O        7.44583441       1.48916688      10.00000000
Mg       5.95666752       0.00000000      10.00000000
O        7.44583441       4.46750064      10.00000000
Mg       5.95666752       2.97833376      10.00000000
O        7.44583441       7.44583441      10.00000000
Mg       5.95666752       5.95666752      10.00000000
O        7.44583441      10.42416817      10.00000000
Mg       5.95666752       8.93500129      10.00000000
O        7.44583441      13.40250193      10.00000000
Mg       5.95666752      11.91333505      10.00000000
O       10.42416817       1.48916688      10.00000000
Mg       8.93500129       0.00000000      10.00000000
O       10.42416817       4.46750064      10.00000000
Mg       8.93500129       2.97833376      10.00000000
O       10.42416817       7.44583441      10.00000000
Mg       8.93500129       5.95666752      10.00000000
O       10.42416817      10.42416817      10.00000000
Mg       8.93500129       8.93500129      10.00000000
O       10.42416817      13.40250193      10.00000000
Mg       8.93500129      11.91333505      10.00000000
O       13.40250193       1.48916688      10.00000000
Mg      11.91333505       0.00000000      10.00000000
O       13.40250193       4.46750064      10.00000000
Mg      11.91333505       2.97833376      10.00000000
O       13.40250193       7.44583441      10.00000000
Mg      11.91333505       5.95666752      10.00000000
O       13.40250193      10.42416817      10.00000000
Mg      11.91333505       8.93500129      10.00000000
O       13.40250193      13.40250193      10.00000000
Mg      11.91333505      11.91333505      10.00000000
Co       1.45497451       1.44632770      12.12637046
Co       1.40727733       4.52840005      12.12717740
Fe       1.85342315       7.05610948      12.11972149
Fe       1.83695970      10.70431969      12.13422439
Fe       1.53407983      13.75083497      12.12855182
Co       4.44516123       1.49934189      12.11749752
Fe       4.84380454       4.09014566      12.08934405
Co       4.44392243       7.54006467      12.20868396
Fe       4.46819162      10.10963873      12.11738606
Fe       4.11879698      13.79009373      12.12795704
Co       7.51897805       1.51101449      12.12188962
Fe       7.65912517       4.09955308      12.12042911
Co       7.43441776       7.55863398      12.13110833
Fe       7.09531750      10.10760431      12.12439313
Fe       7.66566045      13.77950490      12.13472319
Fe      10.10583432       1.71302711      12.12913655
Co      10.25859811       4.33105570      12.16411582
Fe      10.02373694       7.78052012      12.14470529
Fe      10.64131619      10.23925661      12.11279154
Fe      10.18160043      13.78374919      12.11750255
Fe      13.77419631       1.51512853      12.13945145
Fe      13.77453784       4.12773083      12.11535784
Fe      13.22684925       7.61673475      12.11043730
Fe      13.16621911      10.14959717      12.14095737
Fe      13.77975661      13.74887066      12.10923174
