75
Lattice="14.89166881178869 0.0 0.0 0.0 14.89166881178869 0.0 0.0 0.0 41.48916688117887" Properties=species:S:1:pos:R:3 generator=RattleGenerator uuid=d15e47b4-42c3-49a0-9a4b-1824f5ea9e4a model_energy=-406.5069061654392 uncertainty=2.897239906033486 acquisition_value=-412.3013859775062 time_stamp=177583.31843805313 search_iteration=32 relaxation_steps=74 relax_index=1 final=1 parent_search_iterations="_JSON [10]" parent_uuids="_JSON [\"794dcf85-5424-4602-983b-3ac0549e6a5a\"]" spawn_uuids="_JSON [\"794dcf85-5424-4602-983b-3ac0549e6a5a\"]" evaluator_energy="_JSON {\"32\": -407.2457176851503}" iteration=32 database_id=22 pbc="T T F"
O        1.48916688       1.48916688      10.00000000
Mg       0.00000000       0.00000000      10.00000000
O        1.48916688       4.46750064      10.00000000
Mg       0.00000000       2.97833376      10.00000000
O        1.48916688       7.44583441      10.00000000
Mg       0.00000000       5.95666752      10.00000000
O        1.48916688      10.42416817      10.00000000
Mg       0.00000000       8.93500129      10.00000000
O        1.48916688      13.40250193      10.00000000
Mg       0.00000000      11.91333505      10.00000000
O        4.46750064       1.48916688      10.00000000
Mg       2.97833376       0.00000000      10.00000000
O        4.46750064       4.46750064      10.00000000
Mg       2.97833376       2.97833376      10.00000000
O        4.46750064       7.44583441      10.00000000
Mg       2.97833376       5.95666752      10.00000000
O        4.46750064      10.42416817      10.00000000
Mg       2.97833376       8.93500129      10.00000000
O        4.46750064      13.40250193      10.00000000
Mg       2.97833376      11.91333505      10.00000000
O        7.44583441       1.48916688      10.00000000
Mg       5.95666752       0.00000000      10.00000000
O        7.44583441       4.46750064      10.00000000
Mg       5.95666752       2.97833376      10.00000000
O        7.44583441       7.44583441      10.00000000
Mg       5.95666752       5.95666752      10.00000000
O        7.44583441      10.42416817      10.00000000
Mg       5.95666752       8.93500129      10.00000000
O        7.44583441      13.40250193      10.00000000
Mg       5.95666752      11.91333505      10.00000000
O       10.42416817       1.48916688      10.00000000
Mg       8.93500129       0.00000000      10.00000000
O       10.42416817       4.46750064      10.00000000
Mg       8.93500129       2.97833376      10.00000000
O       10.42416817       7.44583441      10.00000000
Mg       8.93500129       5.95666752      10.00000000
O       10.42416817      10.42416817      10.00000000
Mg       8.93500129       8.93500129      10.00000000
O       10.42416817      13.40250193      10.00000000
Mg       8.93500129      11.91333505      10.00000000
O       13.40250193       1.48916688      10.00000000
Mg      11.91333505       0.00000000      10.00000000
O       13.40250193       4.46750064      10.00000000
Mg      11.91333505       2.97833376      10.00000000
O       13.40250193       7.44583441      10.00000000
Mg      11.91333505       5.95666752      10.00000000
O       13.40250193      10.42416817      10.00000000
Mg      11.91333505       8.93500129      10.00000000
O       13.40250193      13.40250193      10.00000000
Mg      11.91333505      11.91333505      10.00000000
Co       1.03231586       1.12526700      12.10797490
Co       1.88735211       4.80736776      12.09854923
Fe       1.71482903       7.18755304      12.13430344
Fe       1.80527788      10.42761895      12.14430206
Fe       1.68980345      13.67453961      12.13981198
Co       4.28437506       1.06106924      12.09940766
Fe       4.27189044       4.66440710      12.13059041
Co       4.10579414       7.04842450      12.09940244
Fe       4.22669536      10.40387160      12.14025481
Fe       4.16144038      13.58391567      12.13791263
Co       7.87392137       1.07148790      12.10914705
Fe       7.64327916       4.41268504      12.13795042
Co       7.82678734       7.84368302      12.10384322
Fe       7.71006930      10.23585425      12.13870520
Fe       7.45490753      13.59293650      12.13582564
Fe      10.20404062       1.66779799      12.13275143
Co      10.00506084       4.06775596      12.10493245
Fe      10.21676035       7.75602609      12.14247279
Fe      10.13304016      10.16633648      12.14637215
Fe      10.77041710      13.33730865      12.14775185
Fe      13.57296751       1.73372772      12.13600987
Fe      13.44098767       4.15638203      12.14408865
Fe      13.42055080       7.45031089      12.14156970
Fe      13.36779597      10.77237597      12.14659180
Fe      13.17882442      13.19085593      12.13907434
