75
Lattice="14.89166881178869 0.0 0.0 0.0 14.89166881178869 0.0 0.0 0.0 41.48916688117887" Properties=species:S:1:pos:R:3 generator=RattleGenerator uuid=d46740e2-dde7-4260-9373-b53502ff73ad model_energy=-421.79261063630514 uncertainty=0.4340321224900913 acquisition_value=-422.66067488128533 time_stamp=51011.20474100113 search_iteration=90 relaxation_steps=100 relax_index=1 final=1 parent_search_iterations="_JSON [89]" parent_uuids="_JSON [\"8f46fc9e-11f5-46f4-8472-a0b3c9d441dd\"]" spawn_uuids="_JSON [\"2467c262-52dd-4a93-b933-9b98d5574695\"]" evaluator_energy="_JSON {\"90\": -421.44004550141915}" iteration=90 database_id=90 pbc="T T F"
O        1.48916688       1.48916688      10.00000000
Mg       0.00000000       0.00000000      10.00000000
O        1.48916688       4.46750064      10.00000000
Mg       0.00000000       2.97833376      10.00000000
O        1.48916688       7.44583441      10.00000000
Mg       0.00000000       5.95666752      10.00000000
O        1.48916688      10.42416817      10.00000000
Mg       0.00000000       8.93500129      10.00000000
O        1.48916688      13.40250193      10.00000000
Mg       0.00000000      11.91333505      10.00000000
O        4.46750064       1.48916688      10.00000000
Mg       2.97833376       0.00000000      10.00000000
O        4.46750064       4.46750064      10.00000000
Mg       2.97833376       2.97833376      10.00000000
O        4.46750064       7.44583441      10.00000000
Mg       2.97833376       5.95666752      10.00000000
O        4.46750064      10.42416817      10.00000000
Mg       2.97833376       8.93500129      10.00000000
O        4.46750064      13.40250193      10.00000000
Mg       2.97833376      11.91333505      10.00000000
O        7.44583441       1.48916688      10.00000000
Mg       5.95666752       0.00000000      10.00000000
O        7.44583441       4.46750064      10.00000000
Mg       5.95666752       2.97833376      10.00000000
O        7.44583441       7.44583441      10.00000000
Mg       5.95666752       5.95666752      10.00000000
O        7.44583441      10.42416817      10.00000000
Mg       5.95666752       8.93500129      10.00000000
O        7.44583441      13.40250193      10.00000000
Mg       5.95666752      11.91333505      10.00000000
O       10.42416817       1.48916688      10.00000000
Mg       8.93500129       0.00000000      10.00000000
O       10.42416817       4.46750064      10.00000000
Mg       8.93500129       2.97833376      10.00000000
O       10.42416817       7.44583441      10.00000000
Mg       8.93500129       5.95666752      10.00000000
O       10.42416817      10.42416817      10.00000000
Mg       8.93500129       8.93500129      10.00000000
O       10.42416817      13.40250193      10.00000000
Mg       8.93500129      11.91333505      10.00000000
O       13.40250193       1.48916688      10.00000000
Mg      11.91333505       0.00000000      10.00000000
O       13.40250193       4.46750064      10.00000000
Mg      11.91333505       2.97833376      10.00000000
O       13.40250193       7.44583441      10.00000000
Mg      11.91333505       5.95666752      10.00000000
O       13.40250193      10.42416817      10.00000000
Mg      11.91333505       8.93500129      10.00000000
O       13.40250193      13.40250193      10.00000000
Mg      11.91333505      11.91333505      10.00000000
Co       1.52156453      -4.55923878      12.34414796
Co       0.04121750       6.11283985      13.63141426
Fe       1.38551057       7.35493406      12.14475001
Fe       1.19228389       4.81391511      12.15664907
Fe       0.12315772       8.75730626      13.46464541
Co       7.54069258       1.29654013      11.99695858
Fe       2.90942770       9.00930445      13.41808813
Co       4.05261660      13.83112455      14.17010737
Fe       4.52841927      10.55804697      12.18283605
Fe       3.04670884      11.78467536      13.44441072
Co      13.11743241       7.30512865      14.28877877
Fe       8.99391877       2.81532274      13.34714886
Co       6.90892339      10.96486143      12.27818893
Fe       4.70584599      13.16596907      12.05014265
Fe       5.69477877      12.20427979      13.78330616
Fe      10.40953315       1.54378792      12.14422949
Co      10.44677411       4.15976360      11.95858956
Fe      11.71904214       5.79785037      13.09758915
Fe       6.09289666      14.85249341      13.40782333
Fe       8.80020096      15.00548826      13.40464354
Fe      11.82674606       3.16999347      13.42256810
Fe      13.52644109       4.64347473      12.18351333
Fe      13.24288054       4.91445362      14.68200142
Fe      13.64315155       7.16226046      12.07617435
Fe       7.31680034      13.35826545      12.15994517
