75
Lattice="14.89166881178869 0.0 0.0 0.0 14.89166881178869 0.0 0.0 0.0 41.48916688117887" Properties=species:S:1:pos:R:3 generator=HeteroStructRandomize uuid=24f70f13-fd64-4e66-a935-cb07cf7c7c75 model_energy=-400.45896850504874 uncertainty=5.579167104498509 acquisition_value=-411.61730271404576 time_stamp=8797.142843723297 search_iteration=16 relaxation_steps=43 relax_index=1 final=1 parent_search_iterations="_JSON []" parent_uuids="_JSON []" spawn_uuids="_JSON [\"24f70f13-fd64-4e66-a935-cb07cf7c7c75\"]" evaluator_energy="_JSON {\"16\": -404.67524793803534}" iteration=16 database_id=16 pbc="T T F"
O        1.48916688       1.48916688      10.00000000
Mg       0.00000000       0.00000000      10.00000000
O        1.48916688       4.46750064      10.00000000
Mg       0.00000000       2.97833376      10.00000000
O        1.48916688       7.44583441      10.00000000
Mg       0.00000000       5.95666752      10.00000000
O        1.48916688      10.42416817      10.00000000
Mg       0.00000000       8.93500129      10.00000000
O        1.48916688      13.40250193      10.00000000
Mg       0.00000000      11.91333505      10.00000000
O        4.46750064       1.48916688      10.00000000
Mg       2.97833376       0.00000000      10.00000000
O        4.46750064       4.46750064      10.00000000
Mg       2.97833376       2.97833376      10.00000000
O        4.46750064       7.44583441      10.00000000
Mg       2.97833376       5.95666752      10.00000000
O        4.46750064      10.42416817      10.00000000
Mg       2.97833376       8.93500129      10.00000000
O        4.46750064      13.40250193      10.00000000
Mg       2.97833376      11.91333505      10.00000000
O        7.44583441       1.48916688      10.00000000
Mg       5.95666752       0.00000000      10.00000000
O        7.44583441       4.46750064      10.00000000
Mg       5.95666752       2.97833376      10.00000000
O        7.44583441       7.44583441      10.00000000
Mg       5.95666752       5.95666752      10.00000000
O        7.44583441      10.42416817      10.00000000
Mg       5.95666752       8.93500129      10.00000000
O        7.44583441      13.40250193      10.00000000
Mg       5.95666752      11.91333505      10.00000000
O       10.42416817       1.48916688      10.00000000
Mg       8.93500129       0.00000000      10.00000000
O       10.42416817       4.46750064      10.00000000
Mg       8.93500129       2.97833376      10.00000000
O       10.42416817       7.44583441      10.00000000
Mg       8.93500129       5.95666752      10.00000000
O       10.42416817      10.42416817      10.00000000
Mg       8.93500129       8.93500129      10.00000000
O       10.42416817      13.40250193      10.00000000
Mg       8.93500129      11.91333505      10.00000000
O       13.40250193       1.48916688      10.00000000
Mg      11.91333505       0.00000000      10.00000000
O       13.40250193       4.46750064      10.00000000
Mg      11.91333505       2.97833376      10.00000000
O       13.40250193       7.44583441      10.00000000
Mg      11.91333505       5.95666752      10.00000000
O       13.40250193      10.42416817      10.00000000
Mg      11.91333505       8.93500129      10.00000000
O       13.40250193      13.40250193      10.00000000
Mg      11.91333505      11.91333505      10.00000000
Co       1.28940185       1.30628661      12.06315063
Co       1.52008512       4.66011058      12.07681971
Fe       1.56195333       7.37556191      12.23865317
Fe       1.49295472      10.42576687      12.26144826
Fe       1.48856237      13.47784591      12.24549232
Co       4.46153414       1.54123009      12.08591661
Fe       4.40317862       4.44954998      12.23528315
Co       4.28086963       7.41251307      12.08294067
Fe       4.47077562      10.37522130      12.25096251
Fe       4.47390643      13.48395028      12.25010819
Co       7.65707645       1.48553186      12.07274284
Fe       7.49075176       4.48155275      12.23627913
Co       7.64661171       7.40164298      12.07449690
Fe       7.43904260      10.36323623      12.25109050
Fe       7.43567654      13.48159549      12.25364039
Fe      10.37169704       1.57362878      12.24072444
Co      10.34962445       4.46088521      12.08909746
Fe      10.36187560       7.35627670      12.24143158
Fe      10.41692095      10.40631720      12.26326310
Fe      10.41409846      13.41369401      12.26259633
Fe      13.46119136       1.50367072      12.24917060
Fe      13.43569460       4.46238349      12.24628134
Fe      13.39896873       7.43378757      12.26213053
Fe      13.40111718      10.42265039      12.23322327
Fe      13.39673425      13.39908636      12.26204204
