75
Lattice="14.89166881178869 0.0 0.0 0.0 14.89166881178869 0.0 0.0 0.0 41.48916688117887" Properties=species:S:1:pos:R:3 generator=HeteroStructRandomize uuid=bc65d106-55c7-412f-9454-6de8488f340f model_energy=-406.3424208101628 uncertainty=1.109417118443523 acquisition_value=-408.5612550470499 time_stamp=20345.658067703247 search_iteration=24 relaxation_steps=86 relax_index=1 final=1 parent_search_iterations="_JSON []" parent_uuids="_JSON []" spawn_uuids="_JSON [\"bc65d106-55c7-412f-9454-6de8488f340f\"]" evaluator_energy="_JSON {\"24\": -406.3649772123453}" iteration=24 database_id=24 pbc="T T F"
O        1.48916688       1.48916688      10.00000000
Mg       0.00000000       0.00000000      10.00000000
O        1.48916688       4.46750064      10.00000000
Mg       0.00000000       2.97833376      10.00000000
O        1.48916688       7.44583441      10.00000000
Mg       0.00000000       5.95666752      10.00000000
O        1.48916688      10.42416817      10.00000000
Mg       0.00000000       8.93500129      10.00000000
O        1.48916688      13.40250193      10.00000000
Mg       0.00000000      11.91333505      10.00000000
O        4.46750064       1.48916688      10.00000000
Mg       2.97833376       0.00000000      10.00000000
O        4.46750064       4.46750064      10.00000000
Mg       2.97833376       2.97833376      10.00000000
O        4.46750064       7.44583441      10.00000000
Mg       2.97833376       5.95666752      10.00000000
O        4.46750064      10.42416817      10.00000000
Mg       2.97833376       8.93500129      10.00000000
O        4.46750064      13.40250193      10.00000000
Mg       2.97833376      11.91333505      10.00000000
O        7.44583441       1.48916688      10.00000000
Mg       5.95666752       0.00000000      10.00000000
O        7.44583441       4.46750064      10.00000000
Mg       5.95666752       2.97833376      10.00000000
O        7.44583441       7.44583441      10.00000000
Mg       5.95666752       5.95666752      10.00000000
O        7.44583441      10.42416817      10.00000000
Mg       5.95666752       8.93500129      10.00000000
O        7.44583441      13.40250193      10.00000000
Mg       5.95666752      11.91333505      10.00000000
O       10.42416817       1.48916688      10.00000000
Mg       8.93500129       0.00000000      10.00000000
O       10.42416817       4.46750064      10.00000000
Mg       8.93500129       2.97833376      10.00000000
O       10.42416817       7.44583441      10.00000000
Mg       8.93500129       5.95666752      10.00000000
O       10.42416817      10.42416817      10.00000000
Mg       8.93500129       8.93500129      10.00000000
O       10.42416817      13.40250193      10.00000000
Mg       8.93500129      11.91333505      10.00000000
O       13.40250193       1.48916688      10.00000000
Mg      11.91333505       0.00000000      10.00000000
O       13.40250193       4.46750064      10.00000000
Mg      11.91333505       2.97833376      10.00000000
O       13.40250193       7.44583441      10.00000000
Mg      11.91333505       5.95666752      10.00000000
O       13.40250193      10.42416817      10.00000000
Mg      11.91333505       8.93500129      10.00000000
O       13.40250193      13.40250193      10.00000000
Mg      11.91333505      11.91333505      10.00000000
Co       1.21020612       1.31180281      12.10570328
Co       1.78309442       4.69086279      12.10901536
Fe       1.64062819       7.28248472      12.08898642
Fe       1.18762621      10.41209789      12.08536616
Fe       1.50310645      13.70978330      12.08825274
Co       4.43543898       1.84174194      12.11562855
Fe       4.33311944       4.44386113      12.09169451
Co       4.20570325       7.13500876      12.11223426
Fe       4.35164802      10.70675165      12.08517705
Fe       4.66274517      13.02869510      12.07555140
Co       7.78848383       1.75152521      12.11427626
Fe       7.68622225       4.30610388      12.08628905
Co       7.47214584       7.69264083      12.11246137
Fe       7.75266252      10.26186573      12.07980770
Fe       6.99362162      13.38935599      12.08884343
Fe      10.32378401       1.07864794      12.08544005
Co      10.17310065       4.70844320      12.10918813
Fe      10.74697722       7.30136315      12.07988318
Fe      10.01936337      10.42190754      12.08629210
Fe      10.83104337      13.61121406      12.08190635
Fe      13.55532624       1.86287112      12.08382875
Fe      13.39897412       4.14021845      12.08496451
Fe      13.05002859       7.47418477      12.08725620
Fe      13.74372930      10.62547817      12.07921751
Fe      13.15234600      13.00114905      12.08303113
