75
Lattice="14.89166881178869 0.0 0.0 0.0 14.89166881178869 0.0 0.0 0.0 41.48916688117887" Properties=species:S:1:pos:R:3 generator=RattleGenerator uuid=8ce855aa-57ea-4f3a-9426-7b34d451d126 model_energy=-407.29739622449256 uncertainty=1.1641726995994048 acquisition_value=-409.6257416236914 time_stamp=185943.0234901905 search_iteration=47 relaxation_steps=100 relax_index=1 final=1 parent_search_iterations="_JSON [41]" parent_uuids="_JSON [\"362cd8f6-faaf-4224-8df0-d62fa7371974\"]" spawn_uuids="_JSON [\"794dcf85-5424-4602-983b-3ac0549e6a5a\"]" evaluator_energy="_JSON {\"47\": -406.3407765680978}" iteration=47 database_id=37 pbc="T T F"
O        1.48916688       1.48916688      10.00000000
Mg       0.00000000       0.00000000      10.00000000
O        1.48916688       4.46750064      10.00000000
Mg       0.00000000       2.97833376      10.00000000
O        1.48916688       7.44583441      10.00000000
Mg       0.00000000       5.95666752      10.00000000
O        1.48916688      10.42416817      10.00000000
Mg       0.00000000       8.93500129      10.00000000
O        1.48916688      13.40250193      10.00000000
Mg       0.00000000      11.91333505      10.00000000
O        4.46750064       1.48916688      10.00000000
Mg       2.97833376       0.00000000      10.00000000
O        4.46750064       4.46750064      10.00000000
Mg       2.97833376       2.97833376      10.00000000
O        4.46750064       7.44583441      10.00000000
Mg       2.97833376       5.95666752      10.00000000
O        4.46750064      10.42416817      10.00000000
Mg       2.97833376       8.93500129      10.00000000
O        4.46750064      13.40250193      10.00000000
Mg       2.97833376      11.91333505      10.00000000
O        7.44583441       1.48916688      10.00000000
Mg       5.95666752       0.00000000      10.00000000
O        7.44583441       4.46750064      10.00000000
Mg       5.95666752       2.97833376      10.00000000
O        7.44583441       7.44583441      10.00000000
Mg       5.95666752       5.95666752      10.00000000
O        7.44583441      10.42416817      10.00000000
Mg       5.95666752       8.93500129      10.00000000
O        7.44583441      13.40250193      10.00000000
Mg       5.95666752      11.91333505      10.00000000
O       10.42416817       1.48916688      10.00000000
Mg       8.93500129       0.00000000      10.00000000
O       10.42416817       4.46750064      10.00000000
Mg       8.93500129       2.97833376      10.00000000
O       10.42416817       7.44583441      10.00000000
Mg       8.93500129       5.95666752      10.00000000
O       10.42416817      10.42416817      10.00000000
Mg       8.93500129       8.93500129      10.00000000
O       10.42416817      13.40250193      10.00000000
Mg       8.93500129      11.91333505      10.00000000
O       13.40250193       1.48916688      10.00000000
Mg      11.91333505       0.00000000      10.00000000
O       13.40250193       4.46750064      10.00000000
Mg      11.91333505       2.97833376      10.00000000
O       13.40250193       7.44583441      10.00000000
Mg      11.91333505       5.95666752      10.00000000
O       13.40250193      10.42416817      10.00000000
Mg      11.91333505       8.93500129      10.00000000
O       13.40250193      13.40250193      10.00000000
Mg      11.91333505      11.91333505      10.00000000
Co       0.17665853      -0.59808506      12.82182904
Co       0.11534943       5.76755924      12.89366356
Fe       1.15852755       7.73332178      12.23196824
Fe       3.05463326       8.98756741      12.96616521
Fe       2.08540950      13.17696670      12.22458550
Co       3.42784219       2.74221680      12.84648067
Fe       4.15628010       4.86425660      12.23275425
Co       4.34115668       7.27945253      12.03635409
Fe       4.34222884      10.73494990      12.17123814
Fe       4.46638525      13.11205590      12.20846739
Co       7.50646501       1.23580486      12.05014845
Fe       9.21564459       6.13525628      13.00313164
Co       8.60438070       8.43103699      12.82602902
Fe       6.26884956      11.83643388      13.01110181
Fe       7.50565812      13.72143677      12.18926127
Fe       9.07918439       2.83471158      12.89744708
Co      10.58930204       4.47099880      12.05667089
Fe      10.72225857       7.77724699      12.21243004
Fe      10.11406147      10.17205854      12.24513789
Fe      10.05681667      13.67420387      12.23938795
Fe      10.63564561       1.24031280      12.19452583
Fe      13.01223167       4.68646563      12.22570010
Fe      13.23172718       7.14670732      12.21680364
Fe      15.20558440      11.94264840      13.01763574
Fe      13.20745273      13.04813012      12.22874405
