75
Lattice="14.89166881178869 0.0 0.0 0.0 14.89166881178869 0.0 0.0 0.0 41.48916688117887" Properties=species:S:1:pos:R:3 generator=HeteroStructRandomize uuid=c3bc8523-8313-4048-9bc0-80cc966b1705 model_energy=-405.2147402337263 uncertainty=1.6208089436458792 acquisition_value=-408.456358121018 time_stamp=19280.7030646801 search_iteration=21 relaxation_steps=80 relax_index=1 final=1 parent_search_iterations="_JSON []" parent_uuids="_JSON []" spawn_uuids="_JSON [\"c3bc8523-8313-4048-9bc0-80cc966b1705\"]" evaluator_energy="_JSON {\"21\": -405.9848770762081}" iteration=21 database_id=21 pbc="T T F"
O        1.48916688       1.48916688      10.00000000
Mg       0.00000000       0.00000000      10.00000000
O        1.48916688       4.46750064      10.00000000
Mg       0.00000000       2.97833376      10.00000000
O        1.48916688       7.44583441      10.00000000
Mg       0.00000000       5.95666752      10.00000000
O        1.48916688      10.42416817      10.00000000
Mg       0.00000000       8.93500129      10.00000000
O        1.48916688      13.40250193      10.00000000
Mg       0.00000000      11.91333505      10.00000000
O        4.46750064       1.48916688      10.00000000
Mg       2.97833376       0.00000000      10.00000000
O        4.46750064       4.46750064      10.00000000
Mg       2.97833376       2.97833376      10.00000000
O        4.46750064       7.44583441      10.00000000
Mg       2.97833376       5.95666752      10.00000000
O        4.46750064      10.42416817      10.00000000
Mg       2.97833376       8.93500129      10.00000000
O        4.46750064      13.40250193      10.00000000
Mg       2.97833376      11.91333505      10.00000000
O        7.44583441       1.48916688      10.00000000
Mg       5.95666752       0.00000000      10.00000000
O        7.44583441       4.46750064      10.00000000
Mg       5.95666752       2.97833376      10.00000000
O        7.44583441       7.44583441      10.00000000
Mg       5.95666752       5.95666752      10.00000000
O        7.44583441      10.42416817      10.00000000
Mg       5.95666752       8.93500129      10.00000000
O        7.44583441      13.40250193      10.00000000
Mg       5.95666752      11.91333505      10.00000000
O       10.42416817       1.48916688      10.00000000
Mg       8.93500129       0.00000000      10.00000000
O       10.42416817       4.46750064      10.00000000
Mg       8.93500129       2.97833376      10.00000000
O       10.42416817       7.44583441      10.00000000
Mg       8.93500129       5.95666752      10.00000000
O       10.42416817      10.42416817      10.00000000
Mg       8.93500129       8.93500129      10.00000000
O       10.42416817      13.40250193      10.00000000
Mg       8.93500129      11.91333505      10.00000000
O       13.40250193       1.48916688      10.00000000
Mg      11.91333505       0.00000000      10.00000000
O       13.40250193       4.46750064      10.00000000
Mg      11.91333505       2.97833376      10.00000000
O       13.40250193       7.44583441      10.00000000
Mg      11.91333505       5.95666752      10.00000000
O       13.40250193      10.42416817      10.00000000
Mg      11.91333505       8.93500129      10.00000000
O       13.40250193      13.40250193      10.00000000
Mg      11.91333505      11.91333505      10.00000000
Co       1.35880313       1.49444137      12.07681358
Co       1.48988134       4.64757918      12.07756450
Fe       1.29328687       7.15910458      12.09197819
Fe       1.44346625      10.65801433      12.09841740
Fe       1.24460045      13.28064000      12.09842510
Co       4.42254852       1.48064928      12.08338360
Fe       4.60569394       4.71641284      12.09864191
Co       4.47704306       7.28822915      12.07757859
Fe       4.17501850      10.54422318      12.09879126
Fe       4.65514907      13.20003833      12.09690562
Co       7.61816878       1.64453559      12.07365005
Fe       7.32987466       4.20302390      12.09919519
Co       7.63074911       7.44380373      12.07591914
Fe       7.76755477      10.58484794      12.09489582
Fe       7.29251049      13.22054048      12.10230749
Fe      10.13938805       1.29427770      12.09534791
Co      10.58779728       4.60513098      12.07181885
Fe      10.12058752       7.09761472      12.09242348
Fe      10.52690780      10.68591711      12.10083750
Fe      10.67127848      13.43584447      12.10129905
Fe      13.65889732       1.43297721      12.09820015
Fe      13.10904459       4.20895889      12.09493491
Fe      13.59790009       7.78973060      12.09496577
Fe      13.41590184      10.48748808      12.10538618
Fe      13.38303823      13.41206145      12.10607373
