75
Lattice="14.89166881178869 0.0 0.0 0.0 14.89166881178869 0.0 0.0 0.0 41.48916688117887" Properties=species:S:1:pos:R:3 generator=RattleGenerator uuid=8f46fc9e-11f5-46f4-8472-a0b3c9d441dd model_energy=-421.5708028860434 uncertainty=0.4339689296152159 acquisition_value=-422.43874074527383 time_stamp=50654.311150312424 search_iteration=89 relaxation_steps=100 relax_index=1 final=1 parent_search_iterations="_JSON [88]" parent_uuids="_JSON [\"2f8dbadf-8a6e-454d-be99-ba63adbb6795\"]" spawn_uuids="_JSON [\"2467c262-52dd-4a93-b933-9b98d5574695\"]" evaluator_energy="_JSON {\"89\": -422.0252351839051}" iteration=89 database_id=89 pbc="T T F"
O        1.48916688       1.48916688      10.00000000
Mg       0.00000000       0.00000000      10.00000000
O        1.48916688       4.46750064      10.00000000
Mg       0.00000000       2.97833376      10.00000000
O        1.48916688       7.44583441      10.00000000
Mg       0.00000000       5.95666752      10.00000000
O        1.48916688      10.42416817      10.00000000
Mg       0.00000000       8.93500129      10.00000000
O        1.48916688      13.40250193      10.00000000
Mg       0.00000000      11.91333505      10.00000000
O        4.46750064       1.48916688      10.00000000
Mg       2.97833376       0.00000000      10.00000000
O        4.46750064       4.46750064      10.00000000
Mg       2.97833376       2.97833376      10.00000000
O        4.46750064       7.44583441      10.00000000
Mg       2.97833376       5.95666752      10.00000000
O        4.46750064      10.42416817      10.00000000
Mg       2.97833376       8.93500129      10.00000000
O        4.46750064      13.40250193      10.00000000
Mg       2.97833376      11.91333505      10.00000000
O        7.44583441       1.48916688      10.00000000
Mg       5.95666752       0.00000000      10.00000000
O        7.44583441       4.46750064      10.00000000
Mg       5.95666752       2.97833376      10.00000000
O        7.44583441       7.44583441      10.00000000
Mg       5.95666752       5.95666752      10.00000000
O        7.44583441      10.42416817      10.00000000
Mg       5.95666752       8.93500129      10.00000000
O        7.44583441      13.40250193      10.00000000
Mg       5.95666752      11.91333505      10.00000000
O       10.42416817       1.48916688      10.00000000
Mg       8.93500129       0.00000000      10.00000000
O       10.42416817       4.46750064      10.00000000
Mg       8.93500129       2.97833376      10.00000000
O       10.42416817       7.44583441      10.00000000
Mg       8.93500129       5.95666752      10.00000000
O       10.42416817      10.42416817      10.00000000
Mg       8.93500129       8.93500129      10.00000000
O       10.42416817      13.40250193      10.00000000
Mg       8.93500129      11.91333505      10.00000000
O       13.40250193       1.48916688      10.00000000
Mg      11.91333505       0.00000000      10.00000000
O       13.40250193       4.46750064      10.00000000
Mg      11.91333505       2.97833376      10.00000000
O       13.40250193       7.44583441      10.00000000
Mg      11.91333505       5.95666752      10.00000000
O       13.40250193      10.42416817      10.00000000
Mg      11.91333505       8.93500129      10.00000000
O       13.40250193      13.40250193      10.00000000
Mg      11.91333505      11.91333505      10.00000000
Co       1.55096607      -4.52987238      12.34414796
Co       0.45049953       6.57924114      14.08549424
Fe       1.43746649       7.44289127      12.15825254
Fe       0.72630339       5.00273746      12.41502251
Fe       0.10192880       8.85803370      13.45270636
Co       7.54968065       1.32250606      12.00883017
Fe       2.90546632       9.04103261      13.45439987
Co       3.90439272      14.00514981      13.88164278
Fe       4.48666889      10.54825137      12.21172464
Fe       3.03814579      11.82429072      13.43545317
Co      13.11861538       7.38149864      14.28353761
Fe       9.02075537       2.84197344      13.34052670
Co       6.78353134      11.09135169      12.35736153
Fe       4.78009863      13.10505357      11.99933260
Fe       5.58873444      12.31187651      13.88811711
Fe      10.42123061       1.52501152      12.15746865
Co      10.50649960       4.21229392      11.97103335
Fe      11.68708273       5.82089879      13.19287797
Fe       6.08426550      14.87172029      13.38448458
Fe       8.81219225      15.02428983      13.40464354
Fe      11.81222289       3.16344768      13.45345067
Fe      13.30536670       4.48401491      12.02630456
Fe      13.65716346       4.98743286      14.20363736
Fe      13.82658478       6.88216175      12.21589896
Fe       7.33991635      13.38481629      12.19398374
