75
Lattice="14.89166881178869 0.0 0.0 0.0 14.89166881178869 0.0 0.0 0.0 41.48916688117887" Properties=species:S:1:pos:R:3 generator=RattleGenerator uuid=ed230d3d-61e5-4e1b-93da-b280599bc6c7 model_energy=-421.3076268373821 uncertainty=0.5233792077179579 acquisition_value=-422.354385252818 time_stamp=47879.828020095825 search_iteration=82 relaxation_steps=100 relax_index=1 final=1 parent_search_iterations="_JSON [79]" parent_uuids="_JSON [\"803bd93e-4348-4372-85d9-703b4cf40f82\"]" spawn_uuids="_JSON [\"2467c262-52dd-4a93-b933-9b98d5574695\"]" evaluator_energy="_JSON {\"82\": -421.0186273095831}" iteration=82 database_id=82 pbc="T T F"
O        1.48916688       1.48916688      10.00000000
Mg       0.00000000       0.00000000      10.00000000
O        1.48916688       4.46750064      10.00000000
Mg       0.00000000       2.97833376      10.00000000
O        1.48916688       7.44583441      10.00000000
Mg       0.00000000       5.95666752      10.00000000
O        1.48916688      10.42416817      10.00000000
Mg       0.00000000       8.93500129      10.00000000
O        1.48916688      13.40250193      10.00000000
Mg       0.00000000      11.91333505      10.00000000
O        4.46750064       1.48916688      10.00000000
Mg       2.97833376       0.00000000      10.00000000
O        4.46750064       4.46750064      10.00000000
Mg       2.97833376       2.97833376      10.00000000
O        4.46750064       7.44583441      10.00000000
Mg       2.97833376       5.95666752      10.00000000
O        4.46750064      10.42416817      10.00000000
Mg       2.97833376       8.93500129      10.00000000
O        4.46750064      13.40250193      10.00000000
Mg       2.97833376      11.91333505      10.00000000
O        7.44583441       1.48916688      10.00000000
Mg       5.95666752       0.00000000      10.00000000
O        7.44583441       4.46750064      10.00000000
Mg       5.95666752       2.97833376      10.00000000
O        7.44583441       7.44583441      10.00000000
Mg       5.95666752       5.95666752      10.00000000
O        7.44583441      10.42416817      10.00000000
Mg       5.95666752       8.93500129      10.00000000
O        7.44583441      13.40250193      10.00000000
Mg       5.95666752      11.91333505      10.00000000
O       10.42416817       1.48916688      10.00000000
Mg       8.93500129       0.00000000      10.00000000
O       10.42416817       4.46750064      10.00000000
Mg       8.93500129       2.97833376      10.00000000
O       10.42416817       7.44583441      10.00000000
Mg       8.93500129       5.95666752      10.00000000
O       10.42416817      10.42416817      10.00000000
Mg       8.93500129       8.93500129      10.00000000
O       10.42416817      13.40250193      10.00000000
Mg       8.93500129      11.91333505      10.00000000
O       13.40250193       1.48916688      10.00000000
Mg      11.91333505       0.00000000      10.00000000
O       13.40250193       4.46750064      10.00000000
Mg      11.91333505       2.97833376      10.00000000
O       13.40250193       7.44583441      10.00000000
Mg      11.91333505       5.95666752      10.00000000
O       13.40250193      10.42416817      10.00000000
Mg      11.91333505       8.93500129      10.00000000
O       13.40250193      13.40250193      10.00000000
Mg      11.91333505      11.91333505      10.00000000
Co       1.68366311      -4.56526518      12.34414796
Co       0.96831665       6.81362771      14.26963765
Fe       1.43526027       7.48438546      12.12111541
Fe       0.92083847       5.10028852      12.44414728
Fe       0.14075265       8.90442585      13.53778542
Co       7.68340072       1.36614039      11.99020835
Fe       2.80051159       8.82188104      13.57274748
Co       4.34467832      10.27894469      14.74113092
Fe       4.43337530      10.30473454      12.29218726
Fe       3.15253520      11.90340456      13.49028886
Co      13.54170367       7.31776217      14.73653146
Fe       9.03209112       2.87203586      13.46121478
Co       7.20070037      10.75418698      11.98678012
Fe       4.70878555      13.43932197      12.24232248
Fe       5.80565715      11.83303255      13.52540807
Fe      10.36072324       1.54643792      12.18707307
Co      10.54888706       4.23348917      11.99085192
Fe      11.93153382       5.76553212      13.49720989
Fe       6.20198847      14.99839927      13.49172428
Fe       8.79963832      15.00774596      13.49646714
Fe      11.77538712       3.13161327      13.49372821
Fe      13.38273487       4.48594647      12.13818641
Fe      14.21795629       5.13464076      14.28942449
Fe      13.97852506       6.88068900      12.46465280
Fe       7.31407600      13.37422897      12.22287112
