75
Lattice="14.89166881178869 0.0 0.0 0.0 14.89166881178869 0.0 0.0 0.0 41.48916688117887" Properties=species:S:1:pos:R:3 generator=RattleGenerator uuid=018fb817-89b5-489f-944d-d85caeb6fc46 model_energy=-407.595255788455 uncertainty=1.540208644917565 acquisition_value=-410.6756730782901 time_stamp=185231.9545557499 search_iteration=45 relaxation_steps=100 relax_index=1 final=1 parent_search_iterations="_JSON [22]" parent_uuids="_JSON [\"f8997261-96a6-4f3d-b365-8578309f5d70\"]" spawn_uuids="_JSON [\"f8997261-96a6-4f3d-b365-8578309f5d70\"]" evaluator_energy="_JSON {\"45\": -406.82916140063804}" iteration=45 database_id=35 pbc="T T F"
O        1.48916688       1.48916688      10.00000000
Mg       0.00000000       0.00000000      10.00000000
O        1.48916688       4.46750064      10.00000000
Mg       0.00000000       2.97833376      10.00000000
O        1.48916688       7.44583441      10.00000000
Mg       0.00000000       5.95666752      10.00000000
O        1.48916688      10.42416817      10.00000000
Mg       0.00000000       8.93500129      10.00000000
O        1.48916688      13.40250193      10.00000000
Mg       0.00000000      11.91333505      10.00000000
O        4.46750064       1.48916688      10.00000000
Mg       2.97833376       0.00000000      10.00000000
O        4.46750064       4.46750064      10.00000000
Mg       2.97833376       2.97833376      10.00000000
O        4.46750064       7.44583441      10.00000000
Mg       2.97833376       5.95666752      10.00000000
O        4.46750064      10.42416817      10.00000000
Mg       2.97833376       8.93500129      10.00000000
O        4.46750064      13.40250193      10.00000000
Mg       2.97833376      11.91333505      10.00000000
O        7.44583441       1.48916688      10.00000000
Mg       5.95666752       0.00000000      10.00000000
O        7.44583441       4.46750064      10.00000000
Mg       5.95666752       2.97833376      10.00000000
O        7.44583441       7.44583441      10.00000000
Mg       5.95666752       5.95666752      10.00000000
O        7.44583441      10.42416817      10.00000000
Mg       5.95666752       8.93500129      10.00000000
O        7.44583441      13.40250193      10.00000000
Mg       5.95666752      11.91333505      10.00000000
O       10.42416817       1.48916688      10.00000000
Mg       8.93500129       0.00000000      10.00000000
O       10.42416817       4.46750064      10.00000000
Mg       8.93500129       2.97833376      10.00000000
O       10.42416817       7.44583441      10.00000000
Mg       8.93500129       5.95666752      10.00000000
O       10.42416817      10.42416817      10.00000000
Mg       8.93500129       8.93500129      10.00000000
O       10.42416817      13.40250193      10.00000000
Mg       8.93500129      11.91333505      10.00000000
O       13.40250193       1.48916688      10.00000000
Mg      11.91333505       0.00000000      10.00000000
O       13.40250193       4.46750064      10.00000000
Mg      11.91333505       2.97833376      10.00000000
O       13.40250193       7.44583441      10.00000000
Mg      11.91333505       5.95666752      10.00000000
O       13.40250193      10.42416817      10.00000000
Mg      11.91333505       8.93500129      10.00000000
O       13.40250193      13.40250193      10.00000000
Mg      11.91333505      11.91333505      10.00000000
Co       1.24820182       1.31160530      12.33818166
Co       1.40301768       4.72210722      12.32001663
Fe       1.82511361       7.15069439      12.20450948
Fe       1.37413117      10.06777443      12.18835554
Fe       1.69793282      13.85930958      12.18976912
Co       4.51795736       1.37242775      12.33336457
Fe       2.84651079       2.93747659      12.86509927
Co       4.22754816       7.42366682      12.33179512
Fe       2.83872351      11.91188445      12.87390628
Fe       4.28628602      13.85427475      12.21127586
Co       7.50769548       1.44374481      12.30180041
Fe       7.50851618       3.85356252      12.18735328
Co       7.73670107       7.50140191      12.33932081
Fe       5.93789492       8.91529944      12.87461162
Fe       7.55057424      13.91764617      12.18963995
Fe       9.87988047       1.45753183      12.18583703
Co      11.69800401       5.21237309      12.64910156
Fe      10.18885220       7.03975775      12.21305867
Fe      10.42194375      10.89353109      12.18234454
Fe      10.00565635      13.38397034      12.17382234
Fe      13.78605154       1.81771161      12.22096259
Fe      13.87273425       4.45171593      12.18227445
Fe      13.31323608       6.93555091      12.19977866
Fe      13.81645251      10.36403479      12.17765255
Fe      15.28639727      12.06036896      12.98726822
