75
Lattice="14.89166881178869 0.0 0.0 0.0 14.89166881178869 0.0 0.0 0.0 41.48916688117887" Properties=species:S:1:pos:R:3 generator=RattleGenerator uuid=2fc13223-d6d4-4b0c-93ad-96bf9fdee2a5 model_energy=-406.870134783931 uncertainty=1.2169015052255832 acquisition_value=-409.3039377943822 time_stamp=186956.7037601471 search_iteration=49 relaxation_steps=100 relax_index=1 final=1 parent_search_iterations="_JSON [5]" parent_uuids="_JSON [\"6fb55281-abf9-426b-b1b7-01eceee232fd\"]" spawn_uuids="_JSON [\"6fb55281-abf9-426b-b1b7-01eceee232fd\"]" evaluator_energy="_JSON {\"49\": -403.6696425111451}" iteration=49 database_id=39 pbc="T T F"
O        1.48916688       1.48916688      10.00000000
Mg       0.00000000       0.00000000      10.00000000
O        1.48916688       4.46750064      10.00000000
Mg       0.00000000       2.97833376      10.00000000
O        1.48916688       7.44583441      10.00000000
Mg       0.00000000       5.95666752      10.00000000
O        1.48916688      10.42416817      10.00000000
Mg       0.00000000       8.93500129      10.00000000
O        1.48916688      13.40250193      10.00000000
Mg       0.00000000      11.91333505      10.00000000
O        4.46750064       1.48916688      10.00000000
Mg       2.97833376       0.00000000      10.00000000
O        4.46750064       4.46750064      10.00000000
Mg       2.97833376       2.97833376      10.00000000
O        4.46750064       7.44583441      10.00000000
Mg       2.97833376       5.95666752      10.00000000
O        4.46750064      10.42416817      10.00000000
Mg       2.97833376       8.93500129      10.00000000
O        4.46750064      13.40250193      10.00000000
Mg       2.97833376      11.91333505      10.00000000
O        7.44583441       1.48916688      10.00000000
Mg       5.95666752       0.00000000      10.00000000
O        7.44583441       4.46750064      10.00000000
Mg       5.95666752       2.97833376      10.00000000
O        7.44583441       7.44583441      10.00000000
Mg       5.95666752       5.95666752      10.00000000
O        7.44583441      10.42416817      10.00000000
Mg       5.95666752       8.93500129      10.00000000
O        7.44583441      13.40250193      10.00000000
Mg       5.95666752      11.91333505      10.00000000
O       10.42416817       1.48916688      10.00000000
Mg       8.93500129       0.00000000      10.00000000
O       10.42416817       4.46750064      10.00000000
Mg       8.93500129       2.97833376      10.00000000
O       10.42416817       7.44583441      10.00000000
Mg       8.93500129       5.95666752      10.00000000
O       10.42416817      10.42416817      10.00000000
Mg       8.93500129       8.93500129      10.00000000
O       10.42416817      13.40250193      10.00000000
Mg       8.93500129      11.91333505      10.00000000
O       13.40250193       1.48916688      10.00000000
Mg      11.91333505       0.00000000      10.00000000
O       13.40250193       4.46750064      10.00000000
Mg      11.91333505       2.97833376      10.00000000
O       13.40250193       7.44583441      10.00000000
Mg      11.91333505       5.95666752      10.00000000
O       13.40250193      10.42416817      10.00000000
Mg      11.91333505       8.93500129      10.00000000
O       13.40250193      13.40250193      10.00000000
Mg      11.91333505      11.91333505      10.00000000
Co       1.76642696       1.12265354      12.05274125
Co       1.68032089       4.43816236      14.08682811
Fe       1.73038808       7.87074475      12.22043869
Fe       1.38977467      10.57646035      12.14542637
Fe       1.31202689      13.67692691      12.14355853
Co       5.17787662       3.17236217      12.93701615
Fe       2.90164437       2.97932341      12.82631608
Co       3.88995100       8.63840456      12.85719394
Fe       4.20015306      10.79313366      12.17656657
Fe       4.82165522      13.34222872      12.15762043
Co       8.15764476       0.22075498      12.87996333
Fe       7.28006464       4.03811772      12.20092262
Co       7.77090225       7.79996934      12.06041397
Fe       7.72863183      10.19865538      12.16109573
Fe       7.53097271      12.99362157      12.16216429
Fe      10.28925171       1.02111047      12.14110648
Co      11.11033737       2.88321200      12.97358564
Fe      10.18038656       7.53480368      12.12918160
Fe      10.58345254      10.16128029      12.16004463
Fe       9.93537423      13.59736462      12.22625661
Fe      12.91122990       1.44406783      12.19578806
Fe      10.70493565       5.01460527      12.22164734
Fe      12.91436242       7.19641253      12.20018021
Fe      13.40200510      10.81819632      12.16255246
Fe      13.63846687      13.59327562      12.16099217
