75
Lattice="14.89166881178869 0.0 0.0 0.0 14.89166881178869 0.0 0.0 0.0 41.48916688117887" Properties=species:S:1:pos:R:3 generator=RattleGenerator uuid=fa8c62d7-475f-49b7-bc20-6707d4fef980 model_energy=-407.1813253501371 uncertainty=1.5068254826269372 acquisition_value=-410.194976315391 time_stamp=184853.1435880661 search_iteration=44 relaxation_steps=100 relax_index=1 final=1 parent_search_iterations="_JSON [28]" parent_uuids="_JSON [\"9695cf82-6f80-4ea9-b8d2-d083b3feea7c\"]" spawn_uuids="_JSON [\"6fb55281-abf9-426b-b1b7-01eceee232fd\"]" evaluator_energy="_JSON {\"44\": -408.6317378644672}" iteration=44 database_id=34 pbc="T T F"
O        1.48916688       1.48916688      10.00000000
Mg       0.00000000       0.00000000      10.00000000
O        1.48916688       4.46750064      10.00000000
Mg       0.00000000       2.97833376      10.00000000
O        1.48916688       7.44583441      10.00000000
Mg       0.00000000       5.95666752      10.00000000
O        1.48916688      10.42416817      10.00000000
Mg       0.00000000       8.93500129      10.00000000
O        1.48916688      13.40250193      10.00000000
Mg       0.00000000      11.91333505      10.00000000
O        4.46750064       1.48916688      10.00000000
Mg       2.97833376       0.00000000      10.00000000
O        4.46750064       4.46750064      10.00000000
Mg       2.97833376       2.97833376      10.00000000
O        4.46750064       7.44583441      10.00000000
Mg       2.97833376       5.95666752      10.00000000
O        4.46750064      10.42416817      10.00000000
Mg       2.97833376       8.93500129      10.00000000
O        4.46750064      13.40250193      10.00000000
Mg       2.97833376      11.91333505      10.00000000
O        7.44583441       1.48916688      10.00000000
Mg       5.95666752       0.00000000      10.00000000
O        7.44583441       4.46750064      10.00000000
Mg       5.95666752       2.97833376      10.00000000
O        7.44583441       7.44583441      10.00000000
Mg       5.95666752       5.95666752      10.00000000
O        7.44583441      10.42416817      10.00000000
Mg       5.95666752       8.93500129      10.00000000
O        7.44583441      13.40250193      10.00000000
Mg       5.95666752      11.91333505      10.00000000
O       10.42416817       1.48916688      10.00000000
Mg       8.93500129       0.00000000      10.00000000
O       10.42416817       4.46750064      10.00000000
Mg       8.93500129       2.97833376      10.00000000
O       10.42416817       7.44583441      10.00000000
Mg       8.93500129       5.95666752      10.00000000
O       10.42416817      10.42416817      10.00000000
Mg       8.93500129       8.93500129      10.00000000
O       10.42416817      13.40250193      10.00000000
Mg       8.93500129      11.91333505      10.00000000
O       13.40250193       1.48916688      10.00000000
Mg      11.91333505       0.00000000      10.00000000
O       13.40250193       4.46750064      10.00000000
Mg      11.91333505       2.97833376      10.00000000
O       13.40250193       7.44583441      10.00000000
Mg      11.91333505       5.95666752      10.00000000
O       13.40250193      10.42416817      10.00000000
Mg      11.91333505       8.93500129      10.00000000
O       13.40250193      13.40250193      10.00000000
Mg      11.91333505      11.91333505      10.00000000
Co       0.50448496       4.07735617      12.73556710
Co      -0.62803865       6.02123260      13.47533139
Fe       4.61910923       7.92925024      12.14701598
Fe       1.81440694      10.73975209      12.19416892
Fe       1.32268451      13.18313516      12.15903608
Co       4.42196927       1.50157971      12.11071224
Fe       4.53635439       3.84251090      12.14029815
Co       5.20368546       5.86065463      12.94906941
Fe       4.24720815      10.36708489      12.13633142
Fe       5.83633362      11.83294650      13.15128442
Co       8.95612743      -0.13220541      13.12661350
Fe       6.99754230       4.49479443      12.16720465
Co       9.27315074       3.96456748      12.69783056
Fe       7.84124205      10.87323954      12.25094478
Fe       7.43533897      13.28732661      12.13823380
Fe      10.09302295       1.75166162      12.20262159
Co      11.60974604       5.77970412      13.18607161
Fe      10.60073844       7.64430316      12.15388860
Fe      10.18566825      10.22823859      12.15789635
Fe       9.76049081      12.65102086      12.42438627
Fe      11.48839249       3.43360304      13.16179291
Fe      13.24540904       4.57985249      12.06204445
Fe      13.03315443       7.29471474      12.09754649
Fe      12.01832258       9.15983445      13.21055951
Fe      13.76044077      13.43686660      12.14537453
