78
Lattice="14.350950000000001 0.0 0.0 0.0 14.350950000000001 0.0 0.0 0.0 20.0" Properties=species:S:1:pos:R:3 generator=RattleGenerator uuid=c221f265-0f12-403e-95a9-e6b424073b6a model_energy=-442.72224482190467 uncertainty=0.905845853029272 acquisition_value=-444.5339365279632 time_stamp=15363.28436756134 search_iteration=55 relaxation_steps=100 relax_index=1 final=1 parent_search_iterations="_JSON [52]" parent_uuids="_JSON [\"59aeec2c-731d-46be-80bb-da507ee84a57\"]" spawn_uuids="_JSON [\"221cd260-02bf-48d9-8317-5553bbe3f9c3\"]" evaluator_energy="_JSON {\"55\": -443.7640272810718}" iteration=55 database_id=55 pbc="T T F"
O        1.43509500       1.43509500      10.00000000
Mg       0.00000000       0.00000000      10.00000000
O        1.43509500       4.30528500      10.00000000
Mg       0.00000000       2.87019000      10.00000000
O        1.43509500       7.17547500      10.00000000
Mg       0.00000000       5.74038000      10.00000000
O        1.43509500      10.04566500      10.00000000
Mg       0.00000000       8.61057000      10.00000000
O        1.43509500      12.91585500      10.00000000
Mg       0.00000000      11.48076000      10.00000000
O        4.30528500       1.43509500      10.00000000
Mg       2.87019000       0.00000000      10.00000000
O        4.30528500       4.30528500      10.00000000
Mg       2.87019000       2.87019000      10.00000000
O        4.30528500       7.17547500      10.00000000
Mg       2.87019000       5.74038000      10.00000000
O        4.30528500      10.04566500      10.00000000
Mg       2.87019000       8.61057000      10.00000000
O        4.30528500      12.91585500      10.00000000
Mg       2.87019000      11.48076000      10.00000000
O        7.17547500       1.43509500      10.00000000
Mg       5.74038000       0.00000000      10.00000000
O        7.17547500       4.30528500      10.00000000
Mg       5.74038000       2.87019000      10.00000000
O        7.17547500       7.17547500      10.00000000
Mg       5.74038000       5.74038000      10.00000000
O        7.17547500      10.04566500      10.00000000
Mg       5.74038000       8.61057000      10.00000000
O        7.17547500      12.91585500      10.00000000
Mg       5.74038000      11.48076000      10.00000000
O       10.04566500       1.43509500      10.00000000
Mg       8.61057000       0.00000000      10.00000000
O       10.04566500       4.30528500      10.00000000
Mg       8.61057000       2.87019000      10.00000000
O       10.04566500       7.17547500      10.00000000
Mg       8.61057000       5.74038000      10.00000000
O       10.04566500      10.04566500      10.00000000
Mg       8.61057000       8.61057000      10.00000000
O       10.04566500      12.91585500      10.00000000
Mg       8.61057000      11.48076000      10.00000000
O       12.91585500       1.43509500      10.00000000
Mg      11.48076000       0.00000000      10.00000000
O       12.91585500       4.30528500      10.00000000
Mg      11.48076000       2.87019000      10.00000000
O       12.91585500       7.17547500      10.00000000
Mg      11.48076000       5.74038000      10.00000000
O       12.91585500      10.04566500      10.00000000
Mg      11.48076000       8.61057000      10.00000000
O       12.91585500      12.91585500      10.00000000
Mg      11.48076000      11.48076000      10.00000000
Fe       1.25848091       1.35659635      12.19710582
Fe       0.74704129       3.71389967      12.38007477
Fe       2.00264355       5.81992671      12.49293764
Fe       2.34782601      11.01673338      12.53124201
Fe       1.79538935      13.33882658      12.27474662
Fe       3.59712987       0.70629767      12.42748960
Fe       4.21286357       4.64028159      12.24773277
Fe       4.80503989       6.92361330      12.28005420
Fe       4.77692818      10.36682524      12.29127317
Fe       4.15310797      12.70119679      12.22714564
Fe       8.52016743       3.76011013      12.51685582
Fe       6.62056746       5.18541401      12.46417729
Fe       7.32842178       7.41944913      12.23097467
Fe       7.26831685       9.91851703      12.21027913
Fe       6.56933288      12.18019190      12.43083942
Fe      10.72931852       2.74539331      12.49084018
Fe      10.46377496       5.05931974      12.38723090
Fe       9.85201925       7.37247118      12.23226854
Fe       9.77585067       9.90798836      12.23278449
Fe      10.39036877      12.28935576      12.37588852
Fe      13.20656917       1.91006340      12.28884326
Fe      12.72711694       4.25517287      12.21838522
Fe      12.25722928       6.67213280      12.38919575
Fe      12.10451875      10.52809578      12.43846035
Fe      12.77981414      12.86795155      12.27947839
B        5.76856209       8.64285610      12.55198531
B        8.52911740      11.46623906      12.53243287
B        8.57557628       5.79551319      12.53693112
