78
Lattice="14.350950000000001 0.0 0.0 0.0 14.350950000000001 0.0 0.0 0.0 20.0" Properties=species:S:1:pos:R:3 generator=RattleGenerator uuid=c1c7c74f-9ede-4d44-8837-044cb54c9492 model_energy=-440.33402218212876 uncertainty=1.10526947244926 acquisition_value=-442.5445611270273 time_stamp=7713.296477794647 search_iteration=29 relaxation_steps=100 relax_index=1 final=1 parent_search_iterations="_JSON [28]" parent_uuids="_JSON [\"29b023a8-7fa7-4085-95c3-84095e05053e\"]" spawn_uuids="_JSON [\"606a3236-cb6f-4d10-bac3-deb1e1bed66c\"]" evaluator_energy="_JSON {\"29\": -440.1269423739164}" iteration=29 database_id=29 pbc="T T F"
O        1.43509500       1.43509500      10.00000000
Mg       0.00000000       0.00000000      10.00000000
O        1.43509500       4.30528500      10.00000000
Mg       0.00000000       2.87019000      10.00000000
O        1.43509500       7.17547500      10.00000000
Mg       0.00000000       5.74038000      10.00000000
O        1.43509500      10.04566500      10.00000000
Mg       0.00000000       8.61057000      10.00000000
O        1.43509500      12.91585500      10.00000000
Mg       0.00000000      11.48076000      10.00000000
O        4.30528500       1.43509500      10.00000000
Mg       2.87019000       0.00000000      10.00000000
O        4.30528500       4.30528500      10.00000000
Mg       2.87019000       2.87019000      10.00000000
O        4.30528500       7.17547500      10.00000000
Mg       2.87019000       5.74038000      10.00000000
O        4.30528500      10.04566500      10.00000000
Mg       2.87019000       8.61057000      10.00000000
O        4.30528500      12.91585500      10.00000000
Mg       2.87019000      11.48076000      10.00000000
O        7.17547500       1.43509500      10.00000000
Mg       5.74038000       0.00000000      10.00000000
O        7.17547500       4.30528500      10.00000000
Mg       5.74038000       2.87019000      10.00000000
O        7.17547500       7.17547500      10.00000000
Mg       5.74038000       5.74038000      10.00000000
O        7.17547500      10.04566500      10.00000000
Mg       5.74038000       8.61057000      10.00000000
O        7.17547500      12.91585500      10.00000000
Mg       5.74038000      11.48076000      10.00000000
O       10.04566500       1.43509500      10.00000000
Mg       8.61057000       0.00000000      10.00000000
O       10.04566500       4.30528500      10.00000000
Mg       8.61057000       2.87019000      10.00000000
O       10.04566500       7.17547500      10.00000000
Mg       8.61057000       5.74038000      10.00000000
O       10.04566500      10.04566500      10.00000000
Mg       8.61057000       8.61057000      10.00000000
O       10.04566500      12.91585500      10.00000000
Mg       8.61057000      11.48076000      10.00000000
O       12.91585500       1.43509500      10.00000000
Mg      11.48076000       0.00000000      10.00000000
O       12.91585500       4.30528500      10.00000000
Mg      11.48076000       2.87019000      10.00000000
O       12.91585500       7.17547500      10.00000000
Mg      11.48076000       5.74038000      10.00000000
O       12.91585500      10.04566500      10.00000000
Mg      11.48076000       8.61057000      10.00000000
O       12.91585500      12.91585500      10.00000000
Mg      11.48076000      11.48076000      10.00000000
Fe       1.43345269       1.10730147      12.26565624
Fe       1.23820310       4.52802248      12.28294140
Fe       1.46511747       7.41952435      12.23539002
Fe       1.72499564      10.11160251      12.23223471
Fe       1.16870553      12.91606636      12.21546232
Fe       4.56846176       1.43857567      12.25561922
Fe       4.59986109       4.22118102      12.26926434
Fe       4.14868131       7.39842551      12.21747197
Fe       4.17519591       9.80082200      12.22562977
Fe       4.03554258      12.97800184      12.26780674
Fe       7.22600437       1.56222763      12.19467295
Fe       7.34108586       4.15834348      12.21717851
Fe       6.95544452       6.95938483      12.22731653
Fe       7.22656324       9.81084139      12.25393853
Fe       7.05359857      13.19295452      12.26611131
Fe       9.88399428       1.64470247      12.24162251
Fe      10.18626806       4.56294473      12.24080982
Fe       9.79022254       7.31265078      12.24231399
Fe       9.97281499       9.88978611      12.28425062
Fe      10.16861611      13.18123099      12.26803207
Fe      12.89742359       1.13172354      12.24964786
Fe      12.76219721       4.09662481      12.24809603
Fe      13.07157620       6.89105126      12.27279782
Fe      13.25449376      10.12697136      12.27938177
Fe      13.09814018      13.08160738      12.20660199
B        5.73276471       8.55713018      12.46828250
B        8.60782942       0.08657602      12.47464402
B        8.56515584       5.74416191      12.45306911
