78
Lattice="14.350950000000001 0.0 0.0 0.0 14.350950000000001 0.0 0.0 0.0 20.0" Properties=species:S:1:pos:R:3 generator=RattleGenerator uuid=7e13d5c4-a340-4fe7-85f3-7f795cbe2e75 model_energy=-443.29638350938325 uncertainty=0.8149389274903932 acquisition_value=-444.92626136436405 time_stamp=15780.320351362228 search_iteration=57 relaxation_steps=84 relax_index=1 final=1 parent_search_iterations="_JSON [55]" parent_uuids="_JSON [\"c221f265-0f12-403e-95a9-e6b424073b6a\"]" spawn_uuids="_JSON [\"221cd260-02bf-48d9-8317-5553bbe3f9c3\"]" evaluator_energy="_JSON {\"57\": -444.42372415885205}" iteration=57 database_id=57 pbc="T T F"
O        1.43509500       1.43509500      10.00000000
Mg       0.00000000       0.00000000      10.00000000
O        1.43509500       4.30528500      10.00000000
Mg       0.00000000       2.87019000      10.00000000
O        1.43509500       7.17547500      10.00000000
Mg       0.00000000       5.74038000      10.00000000
O        1.43509500      10.04566500      10.00000000
Mg       0.00000000       8.61057000      10.00000000
O        1.43509500      12.91585500      10.00000000
Mg       0.00000000      11.48076000      10.00000000
O        4.30528500       1.43509500      10.00000000
Mg       2.87019000       0.00000000      10.00000000
O        4.30528500       4.30528500      10.00000000
Mg       2.87019000       2.87019000      10.00000000
O        4.30528500       7.17547500      10.00000000
Mg       2.87019000       5.74038000      10.00000000
O        4.30528500      10.04566500      10.00000000
Mg       2.87019000       8.61057000      10.00000000
O        4.30528500      12.91585500      10.00000000
Mg       2.87019000      11.48076000      10.00000000
O        7.17547500       1.43509500      10.00000000
Mg       5.74038000       0.00000000      10.00000000
O        7.17547500       4.30528500      10.00000000
Mg       5.74038000       2.87019000      10.00000000
O        7.17547500       7.17547500      10.00000000
Mg       5.74038000       5.74038000      10.00000000
O        7.17547500      10.04566500      10.00000000
Mg       5.74038000       8.61057000      10.00000000
O        7.17547500      12.91585500      10.00000000
Mg       5.74038000      11.48076000      10.00000000
O       10.04566500       1.43509500      10.00000000
Mg       8.61057000       0.00000000      10.00000000
O       10.04566500       4.30528500      10.00000000
Mg       8.61057000       2.87019000      10.00000000
O       10.04566500       7.17547500      10.00000000
Mg       8.61057000       5.74038000      10.00000000
O       10.04566500      10.04566500      10.00000000
Mg       8.61057000       8.61057000      10.00000000
O       10.04566500      12.91585500      10.00000000
Mg       8.61057000      11.48076000      10.00000000
O       12.91585500       1.43509500      10.00000000
Mg      11.48076000       0.00000000      10.00000000
O       12.91585500       4.30528500      10.00000000
Mg      11.48076000       2.87019000      10.00000000
O       12.91585500       7.17547500      10.00000000
Mg      11.48076000       5.74038000      10.00000000
O       12.91585500      10.04566500      10.00000000
Mg      11.48076000       8.61057000      10.00000000
O       12.91585500      12.91585500      10.00000000
Mg      11.48076000      11.48076000      10.00000000
Fe       1.41155720       1.45158093      12.24642593
Fe       0.90176809       3.85196943      12.45266915
Fe       1.94299307       6.13730376      12.58609192
Fe       2.94718348      11.46332688      13.57192825
Fe       1.99571733      13.43713527      12.48289752
Fe       3.77326656       0.87323167      12.47667498
Fe       4.04776852       4.62450185      12.35177932
Fe       4.90153558       6.81078834      12.46391862
Fe       4.94642117      10.50376608      12.49552373
Fe       4.37167437      12.87199254      12.24984241
Fe       8.67907414       3.71232871      13.08567953
Fe       6.65124531       4.97763005      12.49615339
Fe       7.32509383       7.33156012      12.26771779
Fe       7.33964023       9.88274181      12.25259296
Fe       6.73623766      12.26523090      12.47568718
Fe      11.05919357       2.86039383      13.15036871
Fe      10.49979767       5.00718205      12.41521826
Fe       9.84591121       7.32639699      12.26195122
Fe       9.85883798       9.88190709      12.26165716
Fe      10.44643862      12.27336934      12.46967228
Fe      13.37503934       2.01573971      12.49658042
Fe      12.82554077       4.33923836      12.26439384
Fe      12.27096133       6.71977626      12.48260778
Fe      12.20925361      10.50306689      12.50465833
Fe      12.79936988      12.84747008      12.27173188
B        5.77906770       8.63453206      12.55546128
B        8.59227305      11.44306983      12.55577137
B        8.57767437       5.71484338      12.57898155
