78
Lattice="14.350950000000001 0.0 0.0 0.0 14.350950000000001 0.0 0.0 0.0 20.0" Properties=species:S:1:pos:R:3 generator=RattleGenerator uuid=5f1604c2-93b7-4a1a-9074-fdd9b0b15400 model_energy=-442.46819327411697 uncertainty=0.8298201017672998 acquisition_value=-444.12783347765156 time_stamp=9863.919519662857 search_iteration=38 relaxation_steps=85 relax_index=1 final=1 parent_search_iterations="_JSON [20]" parent_uuids="_JSON [\"606a3236-cb6f-4d10-bac3-deb1e1bed66c\"]" spawn_uuids="_JSON [\"606a3236-cb6f-4d10-bac3-deb1e1bed66c\"]" evaluator_energy="_JSON {\"38\": -443.4432756372153}" iteration=38 database_id=38 pbc="T T F"
O        1.43509500       1.43509500      10.00000000
Mg       0.00000000       0.00000000      10.00000000
O        1.43509500       4.30528500      10.00000000
Mg       0.00000000       2.87019000      10.00000000
O        1.43509500       7.17547500      10.00000000
Mg       0.00000000       5.74038000      10.00000000
O        1.43509500      10.04566500      10.00000000
Mg       0.00000000       8.61057000      10.00000000
O        1.43509500      12.91585500      10.00000000
Mg       0.00000000      11.48076000      10.00000000
O        4.30528500       1.43509500      10.00000000
Mg       2.87019000       0.00000000      10.00000000
O        4.30528500       4.30528500      10.00000000
Mg       2.87019000       2.87019000      10.00000000
O        4.30528500       7.17547500      10.00000000
Mg       2.87019000       5.74038000      10.00000000
O        4.30528500      10.04566500      10.00000000
Mg       2.87019000       8.61057000      10.00000000
O        4.30528500      12.91585500      10.00000000
Mg       2.87019000      11.48076000      10.00000000
O        7.17547500       1.43509500      10.00000000
Mg       5.74038000       0.00000000      10.00000000
O        7.17547500       4.30528500      10.00000000
Mg       5.74038000       2.87019000      10.00000000
O        7.17547500       7.17547500      10.00000000
Mg       5.74038000       5.74038000      10.00000000
O        7.17547500      10.04566500      10.00000000
Mg       5.74038000       8.61057000      10.00000000
O        7.17547500      12.91585500      10.00000000
Mg       5.74038000      11.48076000      10.00000000
O       10.04566500       1.43509500      10.00000000
Mg       8.61057000       0.00000000      10.00000000
O       10.04566500       4.30528500      10.00000000
Mg       8.61057000       2.87019000      10.00000000
O       10.04566500       7.17547500      10.00000000
Mg       8.61057000       5.74038000      10.00000000
O       10.04566500      10.04566500      10.00000000
Mg       8.61057000       8.61057000      10.00000000
O       10.04566500      12.91585500      10.00000000
Mg       8.61057000      11.48076000      10.00000000
O       12.91585500       1.43509500      10.00000000
Mg      11.48076000       0.00000000      10.00000000
O       12.91585500       4.30528500      10.00000000
Mg      11.48076000       2.87019000      10.00000000
O       12.91585500       7.17547500      10.00000000
Mg      11.48076000       5.74038000      10.00000000
O       12.91585500      10.04566500      10.00000000
Mg      11.48076000       8.61057000      10.00000000
O       12.91585500      12.91585500      10.00000000
Mg      11.48076000      11.48076000      10.00000000
Fe       1.46511120       1.19432849      12.21133366
Fe       2.33109577       3.47501548      12.69222909
Fe       2.35410505       8.00391558      12.68790275
Fe       1.66651957      10.34962772      12.24236800
Fe       1.17674847      12.91024392      12.19811716
Fe       4.12852726       1.79416326      12.24995043
Fe       4.61493724       4.31658823      12.20967394
Fe       4.53923197       7.06911068      12.19832144
Fe       4.13106249       9.68679717      12.24083434
Fe       3.44712908      12.03702447      12.68781747
Fe       7.20862888       1.74335159      12.20724939
Fe       7.29284331       4.34724796      12.20625360
Fe       7.08916480       7.06206954      12.20675613
Fe       7.44312110       9.64113836      12.26004625
Fe       8.02058363      13.85991756      12.69949558
Fe       9.74453489       1.24429204      12.24542490
Fe      10.04844289       4.53238323      12.24832053
Fe       9.73759472       7.29544124      12.20815677
Fe      10.05346875       9.93046381      12.19757949
Fe      10.31819610      13.05895441      12.22913933
Fe      13.16181309       1.33025672      12.21780453
Fe      12.60354961       3.97941753      12.24462251
Fe      11.92501420       6.26468156      12.71085429
Fe      12.67834436      10.44429821      12.25294903
Fe      12.94355192      13.03827090      12.17247219
B        5.77422246       8.57024035      12.74428416
B        8.73247763       2.95813431      12.72431490
B        8.57141912       5.78959117      12.80121618
