78
Lattice="14.350950000000001 0.0 0.0 0.0 14.350950000000001 0.0 0.0 0.0 20.0" Properties=species:S:1:pos:R:3 generator=HeteroStructRandomize uuid=ad413c1e-ecd2-40c0-9ee4-03dcc2f69dce model_energy=-440.2423906065254 uncertainty=1.6324334356446337 acquisition_value=-443.5072574778147 time_stamp=6012.556415319443 search_iteration=22 relaxation_steps=52 relax_index=1 final=1 parent_search_iterations="_JSON []" parent_uuids="_JSON []" spawn_uuids="_JSON [\"ad413c1e-ecd2-40c0-9ee4-03dcc2f69dce\"]" evaluator_energy="_JSON {\"22\": -441.2337426130019}" iteration=22 database_id=22 pbc="T T F"
O        1.43509500       1.43509500      10.00000000
Mg       0.00000000       0.00000000      10.00000000
O        1.43509500       4.30528500      10.00000000
Mg       0.00000000       2.87019000      10.00000000
O        1.43509500       7.17547500      10.00000000
Mg       0.00000000       5.74038000      10.00000000
O        1.43509500      10.04566500      10.00000000
Mg       0.00000000       8.61057000      10.00000000
O        1.43509500      12.91585500      10.00000000
Mg       0.00000000      11.48076000      10.00000000
O        4.30528500       1.43509500      10.00000000
Mg       2.87019000       0.00000000      10.00000000
O        4.30528500       4.30528500      10.00000000
Mg       2.87019000       2.87019000      10.00000000
O        4.30528500       7.17547500      10.00000000
Mg       2.87019000       5.74038000      10.00000000
O        4.30528500      10.04566500      10.00000000
Mg       2.87019000       8.61057000      10.00000000
O        4.30528500      12.91585500      10.00000000
Mg       2.87019000      11.48076000      10.00000000
O        7.17547500       1.43509500      10.00000000
Mg       5.74038000       0.00000000      10.00000000
O        7.17547500       4.30528500      10.00000000
Mg       5.74038000       2.87019000      10.00000000
O        7.17547500       7.17547500      10.00000000
Mg       5.74038000       5.74038000      10.00000000
O        7.17547500      10.04566500      10.00000000
Mg       5.74038000       8.61057000      10.00000000
O        7.17547500      12.91585500      10.00000000
Mg       5.74038000      11.48076000      10.00000000
O       10.04566500       1.43509500      10.00000000
Mg       8.61057000       0.00000000      10.00000000
O       10.04566500       4.30528500      10.00000000
Mg       8.61057000       2.87019000      10.00000000
O       10.04566500       7.17547500      10.00000000
Mg       8.61057000       5.74038000      10.00000000
O       10.04566500      10.04566500      10.00000000
Mg       8.61057000       8.61057000      10.00000000
O       10.04566500      12.91585500      10.00000000
Mg       8.61057000      11.48076000      10.00000000
O       12.91585500       1.43509500      10.00000000
Mg      11.48076000       0.00000000      10.00000000
O       12.91585500       4.30528500      10.00000000
Mg      11.48076000       2.87019000      10.00000000
O       12.91585500       7.17547500      10.00000000
Mg      11.48076000       5.74038000      10.00000000
O       12.91585500      10.04566500      10.00000000
Mg      11.48076000       8.61057000      10.00000000
O       12.91585500      12.91585500      10.00000000
Mg      11.48076000      11.48076000      10.00000000
Fe       1.43262796       1.59741738      12.16071046
Fe       1.64134657       4.16323504      12.17023028
Fe       1.27215579       7.36165176      12.16791381
Fe       1.29459558      10.03039203      12.15967463
Fe       1.45512345      12.69391993      12.16083976
Fe       4.14733369       1.26638369      12.16823408
Fe       4.29660319       4.48612622      12.15962235
Fe       4.44865177       7.17536327      12.16104375
Fe       4.48357514       9.87253688      12.16679649
Fe       4.09393841      13.05221488      12.16729109
Fe       7.36804234       1.21169009      12.17334979
Fe       6.99196390       4.45911948      12.17639804
Fe       7.23473816       7.07295605      12.17321819
Fe       7.06845268      10.19073972      12.17745028
Fe       7.29970475      12.89288876      12.16037137
Fe       9.91934198       1.45287862      12.16127400
Fe      10.16094198       4.17950508      12.18429807
Fe       9.93594717       7.26513358      12.17649267
Fe      10.21102394       9.89973792      12.17631933
Fe       9.84226929      13.14483291      12.17658068
Fe      13.12379076       1.25666903      12.17263246
Fe      12.79504245       4.40268075      12.15882242
Fe      13.06534040       6.98758031      12.17143096
Fe      12.84726717      10.23381343      12.16434963
Fe      13.06401466      12.93178725      12.16061205
B        8.67021591       5.66458053      12.56967038
B       11.39836715       5.80212503      12.58435411
B        8.53468686       8.68662198      12.57233609
