78
Lattice="14.350950000000001 0.0 0.0 0.0 14.350950000000001 0.0 0.0 0.0 20.0" Properties=species:S:1:pos:R:3 generator=HeteroStructRandomize uuid=221cd260-02bf-48d9-8317-5553bbe3f9c3 model_energy=-438.2599635495467 uncertainty=2.815119810693516 acquisition_value=-443.8902031709337 time_stamp=7147.947359085083 search_iteration=24 relaxation_steps=100 relax_index=1 final=1 parent_search_iterations="_JSON []" parent_uuids="_JSON []" spawn_uuids="_JSON [\"221cd260-02bf-48d9-8317-5553bbe3f9c3\"]" evaluator_energy="_JSON {\"24\": -441.0099844001936}" iteration=24 database_id=24 pbc="T T F"
O        1.43509500       1.43509500      10.00000000
Mg       0.00000000       0.00000000      10.00000000
O        1.43509500       4.30528500      10.00000000
Mg       0.00000000       2.87019000      10.00000000
O        1.43509500       7.17547500      10.00000000
Mg       0.00000000       5.74038000      10.00000000
O        1.43509500      10.04566500      10.00000000
Mg       0.00000000       8.61057000      10.00000000
O        1.43509500      12.91585500      10.00000000
Mg       0.00000000      11.48076000      10.00000000
O        4.30528500       1.43509500      10.00000000
Mg       2.87019000       0.00000000      10.00000000
O        4.30528500       4.30528500      10.00000000
Mg       2.87019000       2.87019000      10.00000000
O        4.30528500       7.17547500      10.00000000
Mg       2.87019000       5.74038000      10.00000000
O        4.30528500      10.04566500      10.00000000
Mg       2.87019000       8.61057000      10.00000000
O        4.30528500      12.91585500      10.00000000
Mg       2.87019000      11.48076000      10.00000000
O        7.17547500       1.43509500      10.00000000
Mg       5.74038000       0.00000000      10.00000000
O        7.17547500       4.30528500      10.00000000
Mg       5.74038000       2.87019000      10.00000000
O        7.17547500       7.17547500      10.00000000
Mg       5.74038000       5.74038000      10.00000000
O        7.17547500      10.04566500      10.00000000
Mg       5.74038000       8.61057000      10.00000000
O        7.17547500      12.91585500      10.00000000
Mg       5.74038000      11.48076000      10.00000000
O       10.04566500       1.43509500      10.00000000
Mg       8.61057000       0.00000000      10.00000000
O       10.04566500       4.30528500      10.00000000
Mg       8.61057000       2.87019000      10.00000000
O       10.04566500       7.17547500      10.00000000
Mg       8.61057000       5.74038000      10.00000000
O       10.04566500      10.04566500      10.00000000
Mg       8.61057000       8.61057000      10.00000000
O       10.04566500      12.91585500      10.00000000
Mg       8.61057000      11.48076000      10.00000000
O       12.91585500       1.43509500      10.00000000
Mg      11.48076000       0.00000000      10.00000000
O       12.91585500       4.30528500      10.00000000
Mg      11.48076000       2.87019000      10.00000000
O       12.91585500       7.17547500      10.00000000
Mg      11.48076000       5.74038000      10.00000000
O       12.91585500      10.04566500      10.00000000
Mg      11.48076000       8.61057000      10.00000000
O       12.91585500      12.91585500      10.00000000
Mg      11.48076000      11.48076000      10.00000000
Fe       1.13158150       1.33186016      12.15690568
Fe       1.15238946       4.05172184      12.16311036
Fe       1.72659350       7.42203562      12.16065123
Fe       1.69192461      10.12796038      12.16705378
Fe       1.47120534      12.93702584      12.18576336
Fe       4.55301866       1.52612048      12.16861444
Fe       4.56632623       4.31872623      12.17113528
Fe       4.47026761       7.11228814      12.18362417
Fe       4.34783023       9.80679407      12.16143869
Fe       4.26437056      13.18378476      12.16500091
Fe       7.23368508       1.13247011      12.15920790
Fe       7.25413569       4.52295593      12.16373532
Fe       7.23028275       7.24786644      12.21181200
Fe       7.14809862       9.97963359      12.20381039
Fe       6.93440485      12.78334485      12.16573288
Fe      10.02973783       1.14620219      12.16112012
Fe      10.05778095       4.56131085      12.17126602
Fe       9.94665533       7.25778788      12.19224458
Fe       9.95036263      10.03784290      12.18488024
Fe      10.32059180      12.78042613      12.16587671
Fe      12.78866533       1.43796118      12.18023090
Fe      12.78095041       4.22846345      12.18047305
Fe      12.65062157       6.93296172      12.16644652
Fe      12.64835959      10.32085347      12.16431715
Fe      13.03678433      13.02313220      12.17379661
B        5.79590414       8.56167502      12.69110287
B        8.58291292       8.65161078      12.68125456
B        8.61937430       5.85091937      12.69649313
