78
Lattice="14.350950000000001 0.0 0.0 0.0 14.350950000000001 0.0 0.0 0.0 20.0" Properties=species:S:1:pos:R:3 generator=RattleGenerator uuid=e6ea6e92-0762-4ffb-b22a-e8f2e5020868 model_energy=-442.67241998921105 uncertainty=0.7300340953948056 acquisition_value=-444.1324881800007 time_stamp=11769.173726558685 search_iteration=46 relaxation_steps=77 relax_index=1 final=1 parent_search_iterations="_JSON [27]" parent_uuids="_JSON [\"23148297-77ca-45ad-a72c-2fdcd8632ac0\"]" spawn_uuids="_JSON [\"606a3236-cb6f-4d10-bac3-deb1e1bed66c\"]" evaluator_energy="_JSON {\"46\": -441.70262427252345}" iteration=46 database_id=46 pbc="T T F"
O        1.43509500       1.43509500      10.00000000
Mg       0.00000000       0.00000000      10.00000000
O        1.43509500       4.30528500      10.00000000
Mg       0.00000000       2.87019000      10.00000000
O        1.43509500       7.17547500      10.00000000
Mg       0.00000000       5.74038000      10.00000000
O        1.43509500      10.04566500      10.00000000
Mg       0.00000000       8.61057000      10.00000000
O        1.43509500      12.91585500      10.00000000
Mg       0.00000000      11.48076000      10.00000000
O        4.30528500       1.43509500      10.00000000
Mg       2.87019000       0.00000000      10.00000000
O        4.30528500       4.30528500      10.00000000
Mg       2.87019000       2.87019000      10.00000000
O        4.30528500       7.17547500      10.00000000
Mg       2.87019000       5.74038000      10.00000000
O        4.30528500      10.04566500      10.00000000
Mg       2.87019000       8.61057000      10.00000000
O        4.30528500      12.91585500      10.00000000
Mg       2.87019000      11.48076000      10.00000000
O        7.17547500       1.43509500      10.00000000
Mg       5.74038000       0.00000000      10.00000000
O        7.17547500       4.30528500      10.00000000
Mg       5.74038000       2.87019000      10.00000000
O        7.17547500       7.17547500      10.00000000
Mg       5.74038000       5.74038000      10.00000000
O        7.17547500      10.04566500      10.00000000
Mg       5.74038000       8.61057000      10.00000000
O        7.17547500      12.91585500      10.00000000
Mg       5.74038000      11.48076000      10.00000000
O       10.04566500       1.43509500      10.00000000
Mg       8.61057000       0.00000000      10.00000000
O       10.04566500       4.30528500      10.00000000
Mg       8.61057000       2.87019000      10.00000000
O       10.04566500       7.17547500      10.00000000
Mg       8.61057000       5.74038000      10.00000000
O       10.04566500      10.04566500      10.00000000
Mg       8.61057000       8.61057000      10.00000000
O       10.04566500      12.91585500      10.00000000
Mg       8.61057000      11.48076000      10.00000000
O       12.91585500       1.43509500      10.00000000
Mg      11.48076000       0.00000000      10.00000000
O       12.91585500       4.30528500      10.00000000
Mg      11.48076000       2.87019000      10.00000000
O       12.91585500       7.17547500      10.00000000
Mg      11.48076000       5.74038000      10.00000000
O       12.91585500      10.04566500      10.00000000
Mg      11.48076000       8.61057000      10.00000000
O       12.91585500      12.91585500      10.00000000
Mg      11.48076000      11.48076000      10.00000000
Fe       1.21271823       1.11287651      12.28085029
Fe       2.87064106       2.86058114      13.44545598
Fe       1.65907527       7.53509533      12.24187652
Fe       1.79565486      10.19393349      12.23005536
Fe       1.53478235      12.83606114      12.19631186
Fe       5.15024530       2.34732806      12.67512932
Fe       4.46019608       4.56711904      12.26543721
Fe       4.23448541       7.26897229      12.21117169
Fe       4.35905585       9.95245569      12.19390126
Fe       4.15638398      12.52703580      12.22922042
Fe       7.38651803       1.58732899      12.23360238
Fe       7.06216456       4.16727140      12.25057331
Fe       7.40304711       7.40507464      12.22884036
Fe       7.07983991      10.04783880      12.19642198
Fe       6.84348162      12.68864699      12.24841217
Fe      10.64567013       2.17971907      12.60317894
Fe      10.11525118       4.54285135      12.20453062
Fe       9.98687293       7.12909849      12.21874608
Fe       9.67676271       9.69390268      12.24670365
Fe      11.47124736      14.34214354      13.48434384
Fe      12.99407977       1.46780372      12.20792089
Fe      12.57162762       4.06827768      12.23900650
Fe      12.58383578       6.77337049      12.25570875
Fe      11.51828211       8.63315150      13.48259185
Fe      13.29930771      13.26819494      12.24390872
B        5.76872966       8.54790721      12.60568287
B        8.73897242       3.05730565      12.62389117
B        8.48340451       5.69569536      12.57332566
