78
Lattice="14.350950000000001 0.0 0.0 0.0 14.350950000000001 0.0 0.0 0.0 20.0" Properties=species:S:1:pos:R:3 generator=RattleGenerator uuid=c45efb99-d3f7-448f-b5dc-217e40c3f783 model_energy=-441.0360020377058 uncertainty=1.542060970186498 acquisition_value=-444.1201239780788 time_stamp=10303.881934642792 search_iteration=40 relaxation_steps=100 relax_index=1 final=1 parent_search_iterations="_JSON [20]" parent_uuids="_JSON [\"606a3236-cb6f-4d10-bac3-deb1e1bed66c\"]" spawn_uuids="_JSON [\"606a3236-cb6f-4d10-bac3-deb1e1bed66c\"]" evaluator_energy="_JSON {\"40\": -442.0160520205582}" iteration=40 database_id=40 pbc="T T F"
O        1.43509500       1.43509500      10.00000000
Mg       0.00000000       0.00000000      10.00000000
O        1.43509500       4.30528500      10.00000000
Mg       0.00000000       2.87019000      10.00000000
O        1.43509500       7.17547500      10.00000000
Mg       0.00000000       5.74038000      10.00000000
O        1.43509500      10.04566500      10.00000000
Mg       0.00000000       8.61057000      10.00000000
O        1.43509500      12.91585500      10.00000000
Mg       0.00000000      11.48076000      10.00000000
O        4.30528500       1.43509500      10.00000000
Mg       2.87019000       0.00000000      10.00000000
O        4.30528500       4.30528500      10.00000000
Mg       2.87019000       2.87019000      10.00000000
O        4.30528500       7.17547500      10.00000000
Mg       2.87019000       5.74038000      10.00000000
O        4.30528500      10.04566500      10.00000000
Mg       2.87019000       8.61057000      10.00000000
O        4.30528500      12.91585500      10.00000000
Mg       2.87019000      11.48076000      10.00000000
O        7.17547500       1.43509500      10.00000000
Mg       5.74038000       0.00000000      10.00000000
O        7.17547500       4.30528500      10.00000000
Mg       5.74038000       2.87019000      10.00000000
O        7.17547500       7.17547500      10.00000000
Mg       5.74038000       5.74038000      10.00000000
O        7.17547500      10.04566500      10.00000000
Mg       5.74038000       8.61057000      10.00000000
O        7.17547500      12.91585500      10.00000000
Mg       5.74038000      11.48076000      10.00000000
O       10.04566500       1.43509500      10.00000000
Mg       8.61057000       0.00000000      10.00000000
O       10.04566500       4.30528500      10.00000000
Mg       8.61057000       2.87019000      10.00000000
O       10.04566500       7.17547500      10.00000000
Mg       8.61057000       5.74038000      10.00000000
O       10.04566500      10.04566500      10.00000000
Mg       8.61057000       8.61057000      10.00000000
O       10.04566500      12.91585500      10.00000000
Mg       8.61057000      11.48076000      10.00000000
O       12.91585500       1.43509500      10.00000000
Mg      11.48076000       0.00000000      10.00000000
O       12.91585500       4.30528500      10.00000000
Mg      11.48076000       2.87019000      10.00000000
O       12.91585500       7.17547500      10.00000000
Mg      11.48076000       5.74038000      10.00000000
O       12.91585500      10.04566500      10.00000000
Mg      11.48076000       8.61057000      10.00000000
O       12.91585500      12.91585500      10.00000000
Mg      11.48076000      11.48076000      10.00000000
Fe       0.89963212       0.87496121      12.32469434
Fe      -0.08683029       2.92948494      13.25713865
Fe       1.67282493       7.53980643      12.24103495
Fe       1.85764844      10.12640658      12.21677347
Fe       1.54888478      12.74997386      12.18981509
Fe       2.96782307       0.03149119      13.25805131
Fe       5.16033678       5.24162425      12.70319314
Fe       4.26852622       7.41801280      12.18717697
Fe       4.40213467      10.02742154      12.16911679
Fe       4.19312232      12.54427739      12.21655898
Fe       8.62554448      -0.01340108      13.24995164
Fe       7.32406882       4.42523836      12.17056422
Fe       6.90625966       6.95795720      12.21255560
Fe       7.05998419      10.19173058      12.20702203
Fe       6.85042192      12.73314747      12.25970132
Fe      10.19488993       1.68401417      12.23544873
Fe       9.86028442       4.33375045      12.16318968
Fe      10.27499518       6.96258279      12.21027360
Fe       9.67209552       9.76067926      12.23121464
Fe      10.98396979      13.80167771      12.70951112
Fe      12.74135918       1.24636847      12.23065754
Fe      12.02459971       5.12630490      12.69059378
Fe      12.88432155       7.18007796      12.16667214
Fe      11.51965284       8.69154075      13.29445560
Fe      13.36982374      13.23316472      12.22735202
B        5.81895677       8.62794235      12.55069203
B        8.55887914       2.84107620      12.51565567
B        8.60951302       5.88125484      12.55748692
