78
Lattice="14.350950000000001 0.0 0.0 0.0 14.350950000000001 0.0 0.0 0.0 20.0" Properties=species:S:1:pos:R:3 generator=RattleGenerator uuid=c0169699-dc61-44ca-a258-c55bec05c337 model_energy=-441.1978076684614 uncertainty=0.840099405136109 acquisition_value=-442.8780064787336 time_stamp=16460.484549045563 search_iteration=59 relaxation_steps=100 relax_index=1 final=1 parent_search_iterations="_JSON [10]" parent_uuids="_JSON [\"6186b70b-5edc-4b6c-ad65-378bb3c322d1\"]" spawn_uuids="_JSON [\"6186b70b-5edc-4b6c-ad65-378bb3c322d1\"]" evaluator_energy="_JSON {\"59\": -441.7431501973045}" iteration=59 database_id=59 pbc="T T F"
O        1.43509500       1.43509500      10.00000000
Mg       0.00000000       0.00000000      10.00000000
O        1.43509500       4.30528500      10.00000000
Mg       0.00000000       2.87019000      10.00000000
O        1.43509500       7.17547500      10.00000000
Mg       0.00000000       5.74038000      10.00000000
O        1.43509500      10.04566500      10.00000000
Mg       0.00000000       8.61057000      10.00000000
O        1.43509500      12.91585500      10.00000000
Mg       0.00000000      11.48076000      10.00000000
O        4.30528500       1.43509500      10.00000000
Mg       2.87019000       0.00000000      10.00000000
O        4.30528500       4.30528500      10.00000000
Mg       2.87019000       2.87019000      10.00000000
O        4.30528500       7.17547500      10.00000000
Mg       2.87019000       5.74038000      10.00000000
O        4.30528500      10.04566500      10.00000000
Mg       2.87019000       8.61057000      10.00000000
O        4.30528500      12.91585500      10.00000000
Mg       2.87019000      11.48076000      10.00000000
O        7.17547500       1.43509500      10.00000000
Mg       5.74038000       0.00000000      10.00000000
O        7.17547500       4.30528500      10.00000000
Mg       5.74038000       2.87019000      10.00000000
O        7.17547500       7.17547500      10.00000000
Mg       5.74038000       5.74038000      10.00000000
O        7.17547500      10.04566500      10.00000000
Mg       5.74038000       8.61057000      10.00000000
O        7.17547500      12.91585500      10.00000000
Mg       5.74038000      11.48076000      10.00000000
O       10.04566500       1.43509500      10.00000000
Mg       8.61057000       0.00000000      10.00000000
O       10.04566500       4.30528500      10.00000000
Mg       8.61057000       2.87019000      10.00000000
O       10.04566500       7.17547500      10.00000000
Mg       8.61057000       5.74038000      10.00000000
O       10.04566500      10.04566500      10.00000000
Mg       8.61057000       8.61057000      10.00000000
O       10.04566500      12.91585500      10.00000000
Mg       8.61057000      11.48076000      10.00000000
O       12.91585500       1.43509500      10.00000000
Mg      11.48076000       0.00000000      10.00000000
O       12.91585500       4.30528500      10.00000000
Mg      11.48076000       2.87019000      10.00000000
O       12.91585500       7.17547500      10.00000000
Mg      11.48076000       5.74038000      10.00000000
O       12.91585500      10.04566500      10.00000000
Mg      11.48076000       8.61057000      10.00000000
O       12.91585500      12.91585500      10.00000000
Mg      11.48076000      11.48076000      10.00000000
Fe       0.91153403       0.87539117      12.45753615
Fe       1.28077509       5.18544072      12.68951142
Fe       2.49702422       7.26543816      12.69952274
Fe       1.83756148       9.56838290      12.43630742
Fe       1.67543939      12.87940540      12.25518550
Fe       2.99442021       0.06237523      13.54237065
Fe       5.07047387       0.77680895      12.44548716
Fe       4.77285477       7.26410791      12.20100535
Fe       4.48510305       9.75512435      12.28338188
Fe       4.30308045      12.77591695      12.26701605
Fe       7.64151593       0.99041494      12.39892950
Fe       7.39807123       4.36788761      12.24944816
Fe       7.20012362       6.91042343      12.21133220
Fe       6.97714915      10.44513212      12.23276873
Fe       6.86003620      13.02686098      12.25907103
Fe      10.15907799       1.53300727      12.26564983
Fe       9.93351902       4.08648223      12.25237155
Fe       9.60426315       7.57417993      12.38250155
Fe       9.50367649      10.03741906      12.24951751
Fe       9.40692111      13.46231316      12.44360248
Fe      12.75614250       1.36070955      12.25722254
Fe      12.45664930       3.80604544      12.43759313
Fe      14.56509761       7.41011893      12.56522912
Fe      11.91439050      10.03466874      12.70468394
Fe      13.55449752      13.41117128      12.46335420
B        6.18146420       8.63851597      12.57722925
B        7.95727143       8.72894019      12.61378573
B        8.79300337       5.73946211      12.54480819
