78
Lattice="14.350950000000001 0.0 0.0 0.0 14.350950000000001 0.0 0.0 0.0 20.0" Properties=species:S:1:pos:R:3 generator=RattleGenerator uuid=fed246a2-287a-46d7-8d90-ef9210c2c3b8 model_energy=-439.9537753527153 uncertainty=1.5765436491057443 acquisition_value=-443.1068626509268 time_stamp=8399.28912448883 search_iteration=32 relaxation_steps=100 relax_index=1 final=1 parent_search_iterations="_JSON [30]" parent_uuids="_JSON [\"0b9562fc-3bc5-4f52-807b-ede0f711d58a\"]" spawn_uuids="_JSON [\"606a3236-cb6f-4d10-bac3-deb1e1bed66c\"]" evaluator_energy="_JSON {\"32\": -440.6628496619813}" iteration=32 database_id=32 pbc="T T F"
O        1.43509500       1.43509500      10.00000000
Mg       0.00000000       0.00000000      10.00000000
O        1.43509500       4.30528500      10.00000000
Mg       0.00000000       2.87019000      10.00000000
O        1.43509500       7.17547500      10.00000000
Mg       0.00000000       5.74038000      10.00000000
O        1.43509500      10.04566500      10.00000000
Mg       0.00000000       8.61057000      10.00000000
O        1.43509500      12.91585500      10.00000000
Mg       0.00000000      11.48076000      10.00000000
O        4.30528500       1.43509500      10.00000000
Mg       2.87019000       0.00000000      10.00000000
O        4.30528500       4.30528500      10.00000000
Mg       2.87019000       2.87019000      10.00000000
O        4.30528500       7.17547500      10.00000000
Mg       2.87019000       5.74038000      10.00000000
O        4.30528500      10.04566500      10.00000000
Mg       2.87019000       8.61057000      10.00000000
O        4.30528500      12.91585500      10.00000000
Mg       2.87019000      11.48076000      10.00000000
O        7.17547500       1.43509500      10.00000000
Mg       5.74038000       0.00000000      10.00000000
O        7.17547500       4.30528500      10.00000000
Mg       5.74038000       2.87019000      10.00000000
O        7.17547500       7.17547500      10.00000000
Mg       5.74038000       5.74038000      10.00000000
O        7.17547500      10.04566500      10.00000000
Mg       5.74038000       8.61057000      10.00000000
O        7.17547500      12.91585500      10.00000000
Mg       5.74038000      11.48076000      10.00000000
O       10.04566500       1.43509500      10.00000000
Mg       8.61057000       0.00000000      10.00000000
O       10.04566500       4.30528500      10.00000000
Mg       8.61057000       2.87019000      10.00000000
O       10.04566500       7.17547500      10.00000000
Mg       8.61057000       5.74038000      10.00000000
O       10.04566500      10.04566500      10.00000000
Mg       8.61057000       8.61057000      10.00000000
O       10.04566500      12.91585500      10.00000000
Mg       8.61057000      11.48076000      10.00000000
O       12.91585500       1.43509500      10.00000000
Mg      11.48076000       0.00000000      10.00000000
O       12.91585500       4.30528500      10.00000000
Mg      11.48076000       2.87019000      10.00000000
O       12.91585500       7.17547500      10.00000000
Mg      11.48076000       5.74038000      10.00000000
O       12.91585500      10.04566500      10.00000000
Mg      11.48076000       8.61057000      10.00000000
O       12.91585500      12.91585500      10.00000000
Mg      11.48076000      11.48076000      10.00000000
Fe       1.36383368       1.19519653      12.22796059
Fe       0.95106296       3.78436004      12.33418356
Fe       1.11257601       7.52244499      12.30685614
Fe       1.16566821      10.19501106      12.25563203
Fe       1.81131179      12.87234080      12.24702584
Fe       4.65426489       1.31456495      12.26348580
Fe       4.67893690       4.56614553      12.27739473
Fe       4.55919232       7.20217942      12.22706019
Fe       4.46314733       9.74326738      12.23777720
Fe       4.53211494      13.06973267      12.24578107
Fe       7.27249994       1.76872116      12.25704608
Fe       7.37063376       4.33908571      12.22381754
Fe       7.00125621       7.22633705      12.21361296
Fe       6.97535233       9.87428918      12.22730787
Fe       7.17711161      12.60199986      12.23393862
Fe       9.81555286       1.69417277      12.24019816
Fe      10.04504662       4.34661848      12.34504034
Fe      10.28193759       6.97816727      12.22441880
Fe      10.34538363      10.26528877      12.27409818
Fe       9.84412805      12.77562058      12.22482348
Fe      13.24453353       1.81628717      12.29606130
Fe      12.71528211       4.36054903      12.21216518
Fe      12.83892379       6.89286338      12.25219703
Fe      12.90590803      10.21231980      12.18692930
Fe      12.46669848      12.71930227      12.27917109
B        5.77667035       8.53767490      13.17562280
B        8.63503662       3.02586927      13.14465169
B       11.45556476       5.66112014      13.15176446
