78
Lattice="14.350950000000001 0.0 0.0 0.0 14.350950000000001 0.0 0.0 0.0 20.0" Properties=species:S:1:pos:R:3 generator=RattleGenerator uuid=363e6efb-d845-4f76-859c-a1421e743b38 model_energy=-439.4387871206115 uncertainty=1.6131793152019664 acquisition_value=-442.6651457510154 time_stamp=12009.600455284119 search_iteration=42 relaxation_steps=100 relax_index=1 final=1 parent_search_iterations="_JSON [29]" parent_uuids="_JSON [\"52bc019f-4bff-4ea3-b3b4-57206c5ccb05\"]" spawn_uuids="_JSON [\"221cd260-02bf-48d9-8317-5553bbe3f9c3\"]" evaluator_energy="_JSON {\"42\": -441.51125818418643}" iteration=42 database_id=42 pbc="T T F"
O        1.43509500       1.43509500      10.00000000
Mg       0.00000000       0.00000000      10.00000000
O        1.43509500       4.30528500      10.00000000
Mg       0.00000000       2.87019000      10.00000000
O        1.43509500       7.17547500      10.00000000
Mg       0.00000000       5.74038000      10.00000000
O        1.43509500      10.04566500      10.00000000
Mg       0.00000000       8.61057000      10.00000000
O        1.43509500      12.91585500      10.00000000
Mg       0.00000000      11.48076000      10.00000000
O        4.30528500       1.43509500      10.00000000
Mg       2.87019000       0.00000000      10.00000000
O        4.30528500       4.30528500      10.00000000
Mg       2.87019000       2.87019000      10.00000000
O        4.30528500       7.17547500      10.00000000
Mg       2.87019000       5.74038000      10.00000000
O        4.30528500      10.04566500      10.00000000
Mg       2.87019000       8.61057000      10.00000000
O        4.30528500      12.91585500      10.00000000
Mg       2.87019000      11.48076000      10.00000000
O        7.17547500       1.43509500      10.00000000
Mg       5.74038000       0.00000000      10.00000000
O        7.17547500       4.30528500      10.00000000
Mg       5.74038000       2.87019000      10.00000000
O        7.17547500       7.17547500      10.00000000
Mg       5.74038000       5.74038000      10.00000000
O        7.17547500      10.04566500      10.00000000
Mg       5.74038000       8.61057000      10.00000000
O        7.17547500      12.91585500      10.00000000
Mg       5.74038000      11.48076000      10.00000000
O       10.04566500       1.43509500      10.00000000
Mg       8.61057000       0.00000000      10.00000000
O       10.04566500       4.30528500      10.00000000
Mg       8.61057000       2.87019000      10.00000000
O       10.04566500       7.17547500      10.00000000
Mg       8.61057000       5.74038000      10.00000000
O       10.04566500      10.04566500      10.00000000
Mg       8.61057000       8.61057000      10.00000000
O       10.04566500      12.91585500      10.00000000
Mg       8.61057000      11.48076000      10.00000000
O       12.91585500       1.43509500      10.00000000
Mg      11.48076000       0.00000000      10.00000000
O       12.91585500       4.30528500      10.00000000
Mg      11.48076000       2.87019000      10.00000000
O       12.91585500       7.17547500      10.00000000
Mg      11.48076000       5.74038000      10.00000000
O       12.91585500      10.04566500      10.00000000
Mg      11.48076000       8.61057000      10.00000000
O       12.91585500      12.91585500      10.00000000
Mg      11.48076000      11.48076000      10.00000000
Fe       0.92068114       1.85311791      12.34009384
Fe       1.43282365       4.32035103      12.26243885
Fe       2.05341482       6.69214282      12.33793869
Fe       0.16778159      11.94338546      12.99209996
Fe       0.02517591      14.29510180      13.53018788
Fe       5.83226287      -0.01913722      13.38678190
Fe       3.79465654       4.78800951      12.32070617
Fe       4.52515279       7.07010270      12.24118869
Fe       4.82158971      10.36881849      12.28958142
Fe       4.42672151      12.74445305      12.25336359
Fe       6.83436801       1.91566328      12.31336226
Fe       7.59585029       4.25615166      12.25676810
Fe       7.16319404       7.19103766      12.32410397
Fe       7.22429515       9.91887179      12.27560157
Fe       6.75457130      12.33767045      12.32532470
Fe       9.10178171       2.50399827      12.97194854
Fe      10.13730670       4.58166413      12.29132719
Fe      10.06942557       7.24680428      12.27910990
Fe      10.07731964       9.88563400      12.25762827
Fe      10.48240222      12.30863803      12.37801754
Fe      12.91315854       1.32206531      12.21894116
Fe      11.47706001       2.87860894      13.40031526
Fe      12.49545013       6.75636654      12.28884498
Fe      12.45651735      10.71587469      12.36880469
Fe      12.66774922      13.20233517      12.22892216
B        5.78479748       8.59902649      12.66389245
B        8.60963302       8.55856349      12.65071541
B        8.64862262       5.85357714      12.67778043
