78
Lattice="14.350950000000001 0.0 0.0 0.0 14.350950000000001 0.0 0.0 0.0 20.0" Properties=species:S:1:pos:R:3 generator=RattleGenerator uuid=bd9fe83f-9990-4e4b-850a-15604cf96608 model_energy=-442.3657710292637 uncertainty=0.5791288098055184 acquisition_value=-443.5240286488748 time_stamp=16684.806230545044 search_iteration=60 relaxation_steps=100 relax_index=1 final=1 parent_search_iterations="_JSON [19]" parent_uuids="_JSON [\"d2332eef-67ad-4b52-bbe5-deb738cf844e\"]" spawn_uuids="_JSON [\"d2332eef-67ad-4b52-bbe5-deb738cf844e\"]" evaluator_energy="_JSON {\"60\": -442.5732524051617}" iteration=60 database_id=60 pbc="T T F"
O        1.43509500       1.43509500      10.00000000
Mg       0.00000000       0.00000000      10.00000000
O        1.43509500       4.30528500      10.00000000
Mg       0.00000000       2.87019000      10.00000000
O        1.43509500       7.17547500      10.00000000
Mg       0.00000000       5.74038000      10.00000000
O        1.43509500      10.04566500      10.00000000
Mg       0.00000000       8.61057000      10.00000000
O        1.43509500      12.91585500      10.00000000
Mg       0.00000000      11.48076000      10.00000000
O        4.30528500       1.43509500      10.00000000
Mg       2.87019000       0.00000000      10.00000000
O        4.30528500       4.30528500      10.00000000
Mg       2.87019000       2.87019000      10.00000000
O        4.30528500       7.17547500      10.00000000
Mg       2.87019000       5.74038000      10.00000000
O        4.30528500      10.04566500      10.00000000
Mg       2.87019000       8.61057000      10.00000000
O        4.30528500      12.91585500      10.00000000
Mg       2.87019000      11.48076000      10.00000000
O        7.17547500       1.43509500      10.00000000
Mg       5.74038000       0.00000000      10.00000000
O        7.17547500       4.30528500      10.00000000
Mg       5.74038000       2.87019000      10.00000000
O        7.17547500       7.17547500      10.00000000
Mg       5.74038000       5.74038000      10.00000000
O        7.17547500      10.04566500      10.00000000
Mg       5.74038000       8.61057000      10.00000000
O        7.17547500      12.91585500      10.00000000
Mg       5.74038000      11.48076000      10.00000000
O       10.04566500       1.43509500      10.00000000
Mg       8.61057000       0.00000000      10.00000000
O       10.04566500       4.30528500      10.00000000
Mg       8.61057000       2.87019000      10.00000000
O       10.04566500       7.17547500      10.00000000
Mg       8.61057000       5.74038000      10.00000000
O       10.04566500      10.04566500      10.00000000
Mg       8.61057000       8.61057000      10.00000000
O       10.04566500      12.91585500      10.00000000
Mg       8.61057000      11.48076000      10.00000000
O       12.91585500       1.43509500      10.00000000
Mg      11.48076000       0.00000000      10.00000000
O       12.91585500       4.30528500      10.00000000
Mg      11.48076000       2.87019000      10.00000000
O       12.91585500       7.17547500      10.00000000
Mg      11.48076000       5.74038000      10.00000000
O       12.91585500      10.04566500      10.00000000
Mg      11.48076000       8.61057000      10.00000000
O       12.91585500      12.91585500      10.00000000
Mg      11.48076000      11.48076000      10.00000000
Fe       1.26279534       1.57252219      12.22814712
Fe       1.11185953       4.29016012      12.18393391
Fe       1.67245825       6.84782071      12.23738842
Fe       2.16298667       9.36339989      12.42165442
Fe       1.99139699      13.42060464      12.41958735
Fe       2.63987644       3.04473572      13.55217972
Fe       3.49915403       5.03703707      12.43682661
Fe       4.01550041       7.58601949      12.24286801
Fe       4.52126998      10.12669725      12.18253451
Fe       4.37872337      12.62727420      12.19374195
Fe       7.63591738       1.44837384      12.22537607
Fe       7.96602004       3.89614343      12.46739830
Fe       7.23324542       7.17636386      12.21142627
Fe       7.20621689      10.02037247      12.21093262
Fe       6.94131497      12.55175947      12.21926605
Fe       9.91080398       2.32683906      12.61849533
Fe      10.34325548       4.65053933      12.21238402
Fe      10.10196957       7.23323385      12.20918001
Fe       9.96175014       9.96471089      12.21236805
Fe       9.44973724      12.37003953      12.42170588
Fe      13.23208229       2.10184473      12.47000982
Fe      12.91330259       4.52149627      12.18408015
Fe      12.66527459       7.03647455      12.20093889
Fe      12.39385839       9.51062586      12.40781947
Fe      11.40573886      11.43548787      13.50948987
B        5.77679216       8.57298438      12.49927717
B        8.59008043       8.56658311      12.51918107
B        8.67952781       5.77952381      12.50757230
