78
Lattice="14.350950000000001 0.0 0.0 0.0 14.350950000000001 0.0 0.0 0.0 20.0" Properties=species:S:1:pos:R:3 generator=RattleGenerator uuid=7224d5d1-afa6-4dfe-85f3-72f693b1beed model_energy=-440.9157553219561 uncertainty=0.6634954752157952 acquisition_value=-442.2427462723877 time_stamp=14496.739839076996 search_iteration=51 relaxation_steps=100 relax_index=1 final=1 parent_search_iterations="_JSON [19]" parent_uuids="_JSON [\"d2332eef-67ad-4b52-bbe5-deb738cf844e\"]" spawn_uuids="_JSON [\"d2332eef-67ad-4b52-bbe5-deb738cf844e\"]" evaluator_energy="_JSON {\"51\": -440.0851059360466}" iteration=51 database_id=51 pbc="T T F"
O        1.43509500       1.43509500      10.00000000
Mg       0.00000000       0.00000000      10.00000000
O        1.43509500       4.30528500      10.00000000
Mg       0.00000000       2.87019000      10.00000000
O        1.43509500       7.17547500      10.00000000
Mg       0.00000000       5.74038000      10.00000000
O        1.43509500      10.04566500      10.00000000
Mg       0.00000000       8.61057000      10.00000000
O        1.43509500      12.91585500      10.00000000
Mg       0.00000000      11.48076000      10.00000000
O        4.30528500       1.43509500      10.00000000
Mg       2.87019000       0.00000000      10.00000000
O        4.30528500       4.30528500      10.00000000
Mg       2.87019000       2.87019000      10.00000000
O        4.30528500       7.17547500      10.00000000
Mg       2.87019000       5.74038000      10.00000000
O        4.30528500      10.04566500      10.00000000
Mg       2.87019000       8.61057000      10.00000000
O        4.30528500      12.91585500      10.00000000
Mg       2.87019000      11.48076000      10.00000000
O        7.17547500       1.43509500      10.00000000
Mg       5.74038000       0.00000000      10.00000000
O        7.17547500       4.30528500      10.00000000
Mg       5.74038000       2.87019000      10.00000000
O        7.17547500       7.17547500      10.00000000
Mg       5.74038000       5.74038000      10.00000000
O        7.17547500      10.04566500      10.00000000
Mg       5.74038000       8.61057000      10.00000000
O        7.17547500      12.91585500      10.00000000
Mg       5.74038000      11.48076000      10.00000000
O       10.04566500       1.43509500      10.00000000
Mg       8.61057000       0.00000000      10.00000000
O       10.04566500       4.30528500      10.00000000
Mg       8.61057000       2.87019000      10.00000000
O       10.04566500       7.17547500      10.00000000
Mg       8.61057000       5.74038000      10.00000000
O       10.04566500      10.04566500      10.00000000
Mg       8.61057000       8.61057000      10.00000000
O       10.04566500      12.91585500      10.00000000
Mg       8.61057000      11.48076000      10.00000000
O       12.91585500       1.43509500      10.00000000
Mg      11.48076000       0.00000000      10.00000000
O       12.91585500       4.30528500      10.00000000
Mg      11.48076000       2.87019000      10.00000000
O       12.91585500       7.17547500      10.00000000
Mg      11.48076000       5.74038000      10.00000000
O       12.91585500      10.04566500      10.00000000
Mg      11.48076000       8.61057000      10.00000000
O       12.91585500      12.91585500      10.00000000
Mg      11.48076000      11.48076000      10.00000000
Fe       1.05325537       1.04626789      12.24447727
Fe       0.06833265       5.78455821      13.50273542
Fe       1.96113635       6.78490188      12.29175066
Fe       0.79895330      10.57990451      12.31576376
Fe       1.40652813      12.99730596      12.21558744
Fe       4.44727536       1.37037780      12.20982962
Fe       4.85714256       3.89670124      12.27644308
Fe       4.52274652       7.28895729      12.26419627
Fe       2.83298148       8.58620058      13.50978541
Fe       4.68400775      13.24862598      12.23926505
Fe       6.70659142       2.07030416      12.29694309
Fe       7.31330256       4.46892980      12.20821116
Fe       7.19601909       7.17207715      12.22806312
Fe       7.42096500      10.09921774      12.22044448
Fe       7.08301281      12.58590114      12.19948849
Fe      10.55743035       2.02232773      12.28866363
Fe       9.97032559       4.45112656      12.20023358
Fe      10.02394623       7.23646712      12.21891909
Fe      10.08727716       9.90750077      12.21833229
Fe       9.55135146      12.37272452      12.28459791
Fe      12.96180872       1.49875444      12.20618112
Fe      12.40977481       3.92319228      12.25978927
Fe      12.41448119       6.56318736      12.31721347
Fe      12.63627711      10.29944227      12.21337750
Fe      13.43373562      12.51946192      12.26486720
B        5.94713139       8.67062163      12.64687440
B        8.60934740       8.56145608      12.66819509
B        8.65352935       5.88592590      12.69420268
