78
Lattice="14.350950000000001 0.0 0.0 0.0 14.350950000000001 0.0 0.0 0.0 20.0" Properties=species:S:1:pos:R:3 generator=RattleGenerator uuid=29b023a8-7fa7-4085-95c3-84095e05053e model_energy=-440.20353717566246 uncertainty=1.2199631170910084 acquisition_value=-442.64346340984446 time_stamp=7461.1998925209045 search_iteration=28 relaxation_steps=90 relax_index=1 final=1 parent_search_iterations="_JSON [25]" parent_uuids="_JSON [\"30609169-c03c-4baf-91c7-afd2bfdd652e\"]" spawn_uuids="_JSON [\"606a3236-cb6f-4d10-bac3-deb1e1bed66c\"]" evaluator_energy="_JSON {\"28\": -441.1986459180133}" iteration=28 database_id=28 pbc="T T F"
O        1.43509500       1.43509500      10.00000000
Mg       0.00000000       0.00000000      10.00000000
O        1.43509500       4.30528500      10.00000000
Mg       0.00000000       2.87019000      10.00000000
O        1.43509500       7.17547500      10.00000000
Mg       0.00000000       5.74038000      10.00000000
O        1.43509500      10.04566500      10.00000000
Mg       0.00000000       8.61057000      10.00000000
O        1.43509500      12.91585500      10.00000000
Mg       0.00000000      11.48076000      10.00000000
O        4.30528500       1.43509500      10.00000000
Mg       2.87019000       0.00000000      10.00000000
O        4.30528500       4.30528500      10.00000000
Mg       2.87019000       2.87019000      10.00000000
O        4.30528500       7.17547500      10.00000000
Mg       2.87019000       5.74038000      10.00000000
O        4.30528500      10.04566500      10.00000000
Mg       2.87019000       8.61057000      10.00000000
O        4.30528500      12.91585500      10.00000000
Mg       2.87019000      11.48076000      10.00000000
O        7.17547500       1.43509500      10.00000000
Mg       5.74038000       0.00000000      10.00000000
O        7.17547500       4.30528500      10.00000000
Mg       5.74038000       2.87019000      10.00000000
O        7.17547500       7.17547500      10.00000000
Mg       5.74038000       5.74038000      10.00000000
O        7.17547500      10.04566500      10.00000000
Mg       5.74038000       8.61057000      10.00000000
O        7.17547500      12.91585500      10.00000000
Mg       5.74038000      11.48076000      10.00000000
O       10.04566500       1.43509500      10.00000000
Mg       8.61057000       0.00000000      10.00000000
O       10.04566500       4.30528500      10.00000000
Mg       8.61057000       2.87019000      10.00000000
O       10.04566500       7.17547500      10.00000000
Mg       8.61057000       5.74038000      10.00000000
O       10.04566500      10.04566500      10.00000000
Mg       8.61057000       8.61057000      10.00000000
O       10.04566500      12.91585500      10.00000000
Mg       8.61057000      11.48076000      10.00000000
O       12.91585500       1.43509500      10.00000000
Mg      11.48076000       0.00000000      10.00000000
O       12.91585500       4.30528500      10.00000000
Mg      11.48076000       2.87019000      10.00000000
O       12.91585500       7.17547500      10.00000000
Mg      11.48076000       5.74038000      10.00000000
O       12.91585500      10.04566500      10.00000000
Mg      11.48076000       8.61057000      10.00000000
O       12.91585500      12.91585500      10.00000000
Mg      11.48076000      11.48076000      10.00000000
Fe       1.18620786       1.41551562      12.23408779
Fe       1.22178349       4.06886558      12.25307276
Fe       1.61924062       7.32572447      12.25808476
Fe       1.22589194       9.89013218      12.25356423
Fe       1.17843338      13.10261339      12.25513485
Fe       4.43680590       1.55959623      12.26042338
Fe       4.44072246       4.14599388      12.25825294
Fe       4.27822318       7.36447632      12.26825337
Fe       4.43499013      10.07542404      12.26267584
Fe       4.52620308      12.71432593      12.25706187
Fe       7.04118713       1.22967460      12.27601524
Fe       7.05164583       4.46152344      12.27812410
Fe       7.02139879       7.03137220      12.29558108
Fe       7.01137084      10.25022191      12.26477810
Fe       7.21561372      12.92459278      12.26301604
Fe      10.22176575       1.22002460      12.26995512
Fe      10.19649204       4.46305722      12.27576553
Fe      10.18276391       7.01841282      12.27473724
Fe      10.26443006      10.25619704      12.25479144
Fe      10.05957165      12.93440166      12.26309048
Fe      12.86198933       1.43437904      12.21868754
Fe      12.86873867       4.09372437      12.24000208
Fe      12.78149633       7.31931830      12.25848153
Fe      12.91270626       9.91593712      12.23895020
Fe      12.83712844      13.12396380      12.24281268
B        5.80454253       8.64131909      12.49776267
B        8.62759047      -0.00385301      12.47974069
B        8.61378632       5.74973792      12.48699648
