78
Lattice="14.350950000000001 0.0 0.0 0.0 14.350950000000001 0.0 0.0 0.0 20.0" Properties=species:S:1:pos:R:3 generator=HeteroStructRandomize uuid=41f00516-5583-45dd-bbb1-7c01ac1c1175 model_energy=-441.29105370247225 uncertainty=1.0356154326670755 acquisition_value=-443.3622845678064 time_stamp=6531.008073568344 search_iteration=24 relaxation_steps=59 relax_index=1 final=1 parent_search_iterations="_JSON []" parent_uuids="_JSON []" spawn_uuids="_JSON [\"41f00516-5583-45dd-bbb1-7c01ac1c1175\"]" evaluator_energy="_JSON {\"24\": -441.0181227638731}" iteration=24 database_id=24 pbc="T T F"
O        1.43509500       1.43509500      10.00000000
Mg       0.00000000       0.00000000      10.00000000
O        1.43509500       4.30528500      10.00000000
Mg       0.00000000       2.87019000      10.00000000
O        1.43509500       7.17547500      10.00000000
Mg       0.00000000       5.74038000      10.00000000
O        1.43509500      10.04566500      10.00000000
Mg       0.00000000       8.61057000      10.00000000
O        1.43509500      12.91585500      10.00000000
Mg       0.00000000      11.48076000      10.00000000
O        4.30528500       1.43509500      10.00000000
Mg       2.87019000       0.00000000      10.00000000
O        4.30528500       4.30528500      10.00000000
Mg       2.87019000       2.87019000      10.00000000
O        4.30528500       7.17547500      10.00000000
Mg       2.87019000       5.74038000      10.00000000
O        4.30528500      10.04566500      10.00000000
Mg       2.87019000       8.61057000      10.00000000
O        4.30528500      12.91585500      10.00000000
Mg       2.87019000      11.48076000      10.00000000
O        7.17547500       1.43509500      10.00000000
Mg       5.74038000       0.00000000      10.00000000
O        7.17547500       4.30528500      10.00000000
Mg       5.74038000       2.87019000      10.00000000
O        7.17547500       7.17547500      10.00000000
Mg       5.74038000       5.74038000      10.00000000
O        7.17547500      10.04566500      10.00000000
Mg       5.74038000       8.61057000      10.00000000
O        7.17547500      12.91585500      10.00000000
Mg       5.74038000      11.48076000      10.00000000
O       10.04566500       1.43509500      10.00000000
Mg       8.61057000       0.00000000      10.00000000
O       10.04566500       4.30528500      10.00000000
Mg       8.61057000       2.87019000      10.00000000
O       10.04566500       7.17547500      10.00000000
Mg       8.61057000       5.74038000      10.00000000
O       10.04566500      10.04566500      10.00000000
Mg       8.61057000       8.61057000      10.00000000
O       10.04566500      12.91585500      10.00000000
Mg       8.61057000      11.48076000      10.00000000
O       12.91585500       1.43509500      10.00000000
Mg      11.48076000       0.00000000      10.00000000
O       12.91585500       4.30528500      10.00000000
Mg      11.48076000       2.87019000      10.00000000
O       12.91585500       7.17547500      10.00000000
Mg      11.48076000       5.74038000      10.00000000
O       12.91585500      10.04566500      10.00000000
Mg      11.48076000       8.61057000      10.00000000
O       12.91585500      12.91585500      10.00000000
Mg      11.48076000      11.48076000      10.00000000
Fe       1.56853038       1.40351412      12.16512223
Fe       1.57907280       4.52070032      12.17590119
Fe       1.58555036       7.02583066      12.16708954
Fe       1.39237744      10.22997247      12.16884203
Fe       1.29812114      12.80798762      12.15907932
Fe       4.27868083       1.43524406      12.15992519
Fe       4.10163775       4.52105238      12.18165920
Fe       4.11108114       7.02889350      12.17050691
Fe       4.50284440      10.19945181      12.17424800
Fe       4.49784771      12.69686780      12.18091126
Fe       7.07129395       1.48434146      12.17190137
Fe       7.19958349       4.42138327      12.16999401
Fe       7.20560366       7.04328376      12.17315979
Fe       7.04430899      10.14893147      12.17418099
Fe       7.03970233      12.73111132      12.16835530
Fe      10.21210325       1.59493799      12.17625567
Fe      10.22751241       4.13354865      12.18546687
Fe      10.20038269       7.34606175      12.18540495
Fe      10.19799114       9.86084343      12.17804949
Fe      10.03703969      12.92480305      12.16603999
Fe      12.76008247       1.63540226      12.17521885
Fe      12.76267503       4.14036744      12.17346695
Fe      12.75288887       7.34136204      12.17410118
Fe      12.72546476       9.82764154      12.18120507
Fe      13.10779018      12.87223768      12.16985442
B        8.58102033       2.87434951      12.48026200
B       11.49565275       5.74299797      12.49694927
B        8.54447412       8.62453039      12.47364691
