78
Lattice="14.350950000000001 0.0 0.0 0.0 14.350950000000001 0.0 0.0 0.0 20.0" Properties=species:S:1:pos:R:3 generator=RattleGenerator uuid=d74f7ccb-55c5-4c56-bfd5-9dc16d19a5cd model_energy=-442.7910761861753 uncertainty=0.6901990696751178 acquisition_value=-444.17147432552554 time_stamp=13331.045637369156 search_iteration=51 relaxation_steps=93 relax_index=1 final=1 parent_search_iterations="_JSON [38]" parent_uuids="_JSON [\"5f1604c2-93b7-4a1a-9074-fdd9b0b15400\"]" spawn_uuids="_JSON [\"606a3236-cb6f-4d10-bac3-deb1e1bed66c\"]" evaluator_energy="_JSON {\"51\": -443.0965584817219}" iteration=51 database_id=51 pbc="T T F"
O        1.43509500       1.43509500      10.00000000
Mg       0.00000000       0.00000000      10.00000000
O        1.43509500       4.30528500      10.00000000
Mg       0.00000000       2.87019000      10.00000000
O        1.43509500       7.17547500      10.00000000
Mg       0.00000000       5.74038000      10.00000000
O        1.43509500      10.04566500      10.00000000
Mg       0.00000000       8.61057000      10.00000000
O        1.43509500      12.91585500      10.00000000
Mg       0.00000000      11.48076000      10.00000000
O        4.30528500       1.43509500      10.00000000
Mg       2.87019000       0.00000000      10.00000000
O        4.30528500       4.30528500      10.00000000
Mg       2.87019000       2.87019000      10.00000000
O        4.30528500       7.17547500      10.00000000
Mg       2.87019000       5.74038000      10.00000000
O        4.30528500      10.04566500      10.00000000
Mg       2.87019000       8.61057000      10.00000000
O        4.30528500      12.91585500      10.00000000
Mg       2.87019000      11.48076000      10.00000000
O        7.17547500       1.43509500      10.00000000
Mg       5.74038000       0.00000000      10.00000000
O        7.17547500       4.30528500      10.00000000
Mg       5.74038000       2.87019000      10.00000000
O        7.17547500       7.17547500      10.00000000
Mg       5.74038000       5.74038000      10.00000000
O        7.17547500      10.04566500      10.00000000
Mg       5.74038000       8.61057000      10.00000000
O        7.17547500      12.91585500      10.00000000
Mg       5.74038000      11.48076000      10.00000000
O       10.04566500       1.43509500      10.00000000
Mg       8.61057000       0.00000000      10.00000000
O       10.04566500       4.30528500      10.00000000
Mg       8.61057000       2.87019000      10.00000000
O       10.04566500       7.17547500      10.00000000
Mg       8.61057000       5.74038000      10.00000000
O       10.04566500      10.04566500      10.00000000
Mg       8.61057000       8.61057000      10.00000000
O       10.04566500      12.91585500      10.00000000
Mg       8.61057000      11.48076000      10.00000000
O       12.91585500       1.43509500      10.00000000
Mg      11.48076000       0.00000000      10.00000000
O       12.91585500       4.30528500      10.00000000
Mg      11.48076000       2.87019000      10.00000000
O       12.91585500       7.17547500      10.00000000
Mg      11.48076000       5.74038000      10.00000000
O       12.91585500      10.04566500      10.00000000
Mg      11.48076000       8.61057000      10.00000000
O       12.91585500      12.91585500      10.00000000
Mg      11.48076000      11.48076000      10.00000000
Fe       1.11533446       1.25775075      12.22417641
Fe       2.29338039       3.33867321      12.62534818
Fe       2.27503047       7.94189347      12.59742082
Fe       1.73273703      10.26571240      12.20836027
Fe       1.21764881      13.13314618      12.19642836
Fe       4.18101695       1.73369796      12.27381404
Fe       4.59441661       4.16239347      12.22440424
Fe       4.49399562       7.12548015      12.16084789
Fe       4.09252013       9.69022788      12.23199432
Fe       3.36508356      12.07782790      12.62340041
Fe       7.31391198       1.70426447      12.19109973
Fe       7.10521127       4.20087464      12.15817986
Fe       7.21622482       7.19541272      12.16139533
Fe       7.38493439       9.73123379      12.25561327
Fe       8.02827960      13.80647517      12.61647755
Fe       9.78674082       1.32230143      12.23147825
Fe      10.15992259       4.53108080      12.20736839
Fe       9.77783029       7.05514520      12.19179750
Fe       8.82131798      11.55301445      13.20073935
Fe      10.35404890      13.25103050      12.25077866
Fe      12.96989192       1.39706722      12.16847736
Fe      12.61728722       3.99661990      12.24272959
Fe      12.01434877       6.32437114      12.61696647
Fe      14.29303191      11.43377719      13.27819778
Fe      13.04377627      13.25880843      12.22814795
B        5.77364498       8.58467372      12.58015987
B        8.75460960       3.05723871      12.59037232
B        8.47744847       5.61605440      12.59872983
