78
Lattice="14.350950000000001 0.0 0.0 0.0 14.350950000000001 0.0 0.0 0.0 20.0" Properties=species:S:1:pos:R:3 generator=RattleGenerator uuid=21429e89-ce93-4da2-8111-f281727f71f1 model_energy=-442.17449638992804 uncertainty=1.0274145868624807 acquisition_value=-444.229325563653 time_stamp=10079.92864727974 search_iteration=39 relaxation_steps=98 relax_index=1 final=1 parent_search_iterations="_JSON [27]" parent_uuids="_JSON [\"23148297-77ca-45ad-a72c-2fdcd8632ac0\"]" spawn_uuids="_JSON [\"606a3236-cb6f-4d10-bac3-deb1e1bed66c\"]" evaluator_energy="_JSON {\"39\": -441.1987934863451}" iteration=39 database_id=39 pbc="T T F"
O        1.43509500       1.43509500      10.00000000
Mg       0.00000000       0.00000000      10.00000000
O        1.43509500       4.30528500      10.00000000
Mg       0.00000000       2.87019000      10.00000000
O        1.43509500       7.17547500      10.00000000
Mg       0.00000000       5.74038000      10.00000000
O        1.43509500      10.04566500      10.00000000
Mg       0.00000000       8.61057000      10.00000000
O        1.43509500      12.91585500      10.00000000
Mg       0.00000000      11.48076000      10.00000000
O        4.30528500       1.43509500      10.00000000
Mg       2.87019000       0.00000000      10.00000000
O        4.30528500       4.30528500      10.00000000
Mg       2.87019000       2.87019000      10.00000000
O        4.30528500       7.17547500      10.00000000
Mg       2.87019000       5.74038000      10.00000000
O        4.30528500      10.04566500      10.00000000
Mg       2.87019000       8.61057000      10.00000000
O        4.30528500      12.91585500      10.00000000
Mg       2.87019000      11.48076000      10.00000000
O        7.17547500       1.43509500      10.00000000
Mg       5.74038000       0.00000000      10.00000000
O        7.17547500       4.30528500      10.00000000
Mg       5.74038000       2.87019000      10.00000000
O        7.17547500       7.17547500      10.00000000
Mg       5.74038000       5.74038000      10.00000000
O        7.17547500      10.04566500      10.00000000
Mg       5.74038000       8.61057000      10.00000000
O        7.17547500      12.91585500      10.00000000
Mg       5.74038000      11.48076000      10.00000000
O       10.04566500       1.43509500      10.00000000
Mg       8.61057000       0.00000000      10.00000000
O       10.04566500       4.30528500      10.00000000
Mg       8.61057000       2.87019000      10.00000000
O       10.04566500       7.17547500      10.00000000
Mg       8.61057000       5.74038000      10.00000000
O       10.04566500      10.04566500      10.00000000
Mg       8.61057000       8.61057000      10.00000000
O       10.04566500      12.91585500      10.00000000
Mg       8.61057000      11.48076000      10.00000000
O       12.91585500       1.43509500      10.00000000
Mg      11.48076000       0.00000000      10.00000000
O       12.91585500       4.30528500      10.00000000
Mg      11.48076000       2.87019000      10.00000000
O       12.91585500       7.17547500      10.00000000
Mg      11.48076000       5.74038000      10.00000000
O       12.91585500      10.04566500      10.00000000
Mg      11.48076000       8.61057000      10.00000000
O       12.91585500      12.91585500      10.00000000
Mg      11.48076000      11.48076000      10.00000000
Fe       0.67386729       2.20581311      12.56663771
Fe       1.20564234       4.59734956      12.22287926
Fe       1.75268548       7.09014438      12.20007765
Fe       1.76067368      10.12559047      12.21200436
Fe       1.17343916      12.65527530      12.22982635
Fe       4.31247380       1.45859011      12.18249441
Fe       4.83608698       3.82828892      12.32817926
Fe       4.30238840       7.39155514      12.19740209
Fe       4.30557338       9.82091060      12.18419078
Fe       5.05577581      12.12702549      12.57257363
Fe       6.72786848       1.94292056      12.29558915
Fe       7.29206014       4.35366404      12.19043740
Fe       6.87344070       6.88858694      12.23585938
Fe       6.77604759      10.31813973      12.23737163
Fe       7.41690522      12.74739610      12.21694218
Fe      10.22373167       1.69640398      12.22983384
Fe       9.75323965       4.34894732      12.21151662
Fe       9.93427998       7.10952169      12.18371577
Fe      10.32769794       9.62495439      12.25403985
Fe       9.99578557      13.32039394      12.21385410
Fe      12.71372452       1.44659283      12.17419257
Fe      13.17748331       3.92620387      12.23529715
Fe      13.79800997       6.31700139      12.58983937
Fe      12.15888496       8.00996134      12.57499249
Fe      12.97840484      13.26694891      12.20924195
B        5.83711167       8.58581136      12.77085414
B        8.55167739       2.80758390      12.75182601
B        8.52106851       5.83981023      12.80702520
