78
Lattice="14.350950000000001 0.0 0.0 0.0 14.350950000000001 0.0 0.0 0.0 20.0" Properties=species:S:1:pos:R:3 generator=RattleGenerator uuid=35644541-0297-47b3-a386-7ba84969359b model_energy=-443.05644328324433 uncertainty=0.8194248941094308 acquisition_value=-444.6952930714632 time_stamp=11558.003393650055 search_iteration=45 relaxation_steps=100 relax_index=1 final=1 parent_search_iterations="_JSON [28]" parent_uuids="_JSON [\"29b023a8-7fa7-4085-95c3-84095e05053e\"]" spawn_uuids="_JSON [\"606a3236-cb6f-4d10-bac3-deb1e1bed66c\"]" evaluator_energy="_JSON {\"45\": -442.8381742305964}" iteration=45 database_id=45 pbc="T T F"
O        1.43509500       1.43509500      10.00000000
Mg       0.00000000       0.00000000      10.00000000
O        1.43509500       4.30528500      10.00000000
Mg       0.00000000       2.87019000      10.00000000
O        1.43509500       7.17547500      10.00000000
Mg       0.00000000       5.74038000      10.00000000
O        1.43509500      10.04566500      10.00000000
Mg       0.00000000       8.61057000      10.00000000
O        1.43509500      12.91585500      10.00000000
Mg       0.00000000      11.48076000      10.00000000
O        4.30528500       1.43509500      10.00000000
Mg       2.87019000       0.00000000      10.00000000
O        4.30528500       4.30528500      10.00000000
Mg       2.87019000       2.87019000      10.00000000
O        4.30528500       7.17547500      10.00000000
Mg       2.87019000       5.74038000      10.00000000
O        4.30528500      10.04566500      10.00000000
Mg       2.87019000       8.61057000      10.00000000
O        4.30528500      12.91585500      10.00000000
Mg       2.87019000      11.48076000      10.00000000
O        7.17547500       1.43509500      10.00000000
Mg       5.74038000       0.00000000      10.00000000
O        7.17547500       4.30528500      10.00000000
Mg       5.74038000       2.87019000      10.00000000
O        7.17547500       7.17547500      10.00000000
Mg       5.74038000       5.74038000      10.00000000
O        7.17547500      10.04566500      10.00000000
Mg       5.74038000       8.61057000      10.00000000
O        7.17547500      12.91585500      10.00000000
Mg       5.74038000      11.48076000      10.00000000
O       10.04566500       1.43509500      10.00000000
Mg       8.61057000       0.00000000      10.00000000
O       10.04566500       4.30528500      10.00000000
Mg       8.61057000       2.87019000      10.00000000
O       10.04566500       7.17547500      10.00000000
Mg       8.61057000       5.74038000      10.00000000
O       10.04566500      10.04566500      10.00000000
Mg       8.61057000       8.61057000      10.00000000
O       10.04566500      12.91585500      10.00000000
Mg       8.61057000      11.48076000      10.00000000
O       12.91585500       1.43509500      10.00000000
Mg      11.48076000       0.00000000      10.00000000
O       12.91585500       4.30528500      10.00000000
Mg      11.48076000       2.87019000      10.00000000
O       12.91585500       7.17547500      10.00000000
Mg      11.48076000       5.74038000      10.00000000
O       12.91585500      10.04566500      10.00000000
Mg      11.48076000       8.61057000      10.00000000
O       12.91585500      12.91585500      10.00000000
Mg      11.48076000      11.48076000      10.00000000
Fe       0.98162844       0.99751716      12.22571091
Fe       3.07494552       5.81439714      13.40755905
Fe       1.91558394       7.64361716      12.22511527
Fe       1.38345699      10.12956963      12.18787241
Fe       1.08570864      12.73485668      12.21395103
Fe       5.76184735       2.97332115      13.42999917
Fe       5.53844870       5.47847160      13.38188986
Fe       4.49453104       7.36781944      12.17247872
Fe       3.88398528       9.67613697      12.21955145
Fe       5.59859916      15.00387956      12.83331804
Fe       7.58188156       1.71502002      12.21916947
Fe       7.35462073       4.31064934      12.20882183
Fe       7.12997951       6.93016194      12.17742459
Fe       6.25067949       9.19710131      12.67463047
Fe       7.45364936      13.36670385      12.21472420
Fe      10.20559991       1.60737509      12.19682954
Fe       9.96536836       4.20236249      12.20225510
Fe      10.15437490       6.95678055      12.20597073
Fe      10.86740504       9.27449382      12.62601861
Fe      10.28374304      13.32378939      12.22467677
Fe      12.77849639       1.32750592      12.19393490
Fe      12.51694163       3.91594443      12.22406124
Fe      12.60207808       7.53200144      12.22309076
Fe      13.14914273      10.04632319      12.22733050
Fe      12.92856593      13.11367250      12.21135092
B        5.86466869       7.44522622      13.58144834
B        8.84409930       0.26055100      12.79046116
B        8.65940503       5.70982878      12.64566112
