78
Lattice="14.350950000000001 0.0 0.0 0.0 14.350950000000001 0.0 0.0 0.0 20.0" Properties=species:S:1:pos:R:3 generator=RattleGenerator uuid=30609169-c03c-4baf-91c7-afd2bfdd652e model_energy=-440.0870317629634 uncertainty=1.588732810815218 acquisition_value=-443.2644973845939 time_stamp=6823.142617464066 search_iteration=25 relaxation_steps=81 relax_index=1 final=1 parent_search_iterations="_JSON [20]" parent_uuids="_JSON [\"606a3236-cb6f-4d10-bac3-deb1e1bed66c\"]" spawn_uuids="_JSON [\"606a3236-cb6f-4d10-bac3-deb1e1bed66c\"]" evaluator_energy="_JSON {\"25\": -441.02824268374553}" iteration=25 database_id=25 pbc="T T F"
O        1.43509500       1.43509500      10.00000000
Mg       0.00000000       0.00000000      10.00000000
O        1.43509500       4.30528500      10.00000000
Mg       0.00000000       2.87019000      10.00000000
O        1.43509500       7.17547500      10.00000000
Mg       0.00000000       5.74038000      10.00000000
O        1.43509500      10.04566500      10.00000000
Mg       0.00000000       8.61057000      10.00000000
O        1.43509500      12.91585500      10.00000000
Mg       0.00000000      11.48076000      10.00000000
O        4.30528500       1.43509500      10.00000000
Mg       2.87019000       0.00000000      10.00000000
O        4.30528500       4.30528500      10.00000000
Mg       2.87019000       2.87019000      10.00000000
O        4.30528500       7.17547500      10.00000000
Mg       2.87019000       5.74038000      10.00000000
O        4.30528500      10.04566500      10.00000000
Mg       2.87019000       8.61057000      10.00000000
O        4.30528500      12.91585500      10.00000000
Mg       2.87019000      11.48076000      10.00000000
O        7.17547500       1.43509500      10.00000000
Mg       5.74038000       0.00000000      10.00000000
O        7.17547500       4.30528500      10.00000000
Mg       5.74038000       2.87019000      10.00000000
O        7.17547500       7.17547500      10.00000000
Mg       5.74038000       5.74038000      10.00000000
O        7.17547500      10.04566500      10.00000000
Mg       5.74038000       8.61057000      10.00000000
O        7.17547500      12.91585500      10.00000000
Mg       5.74038000      11.48076000      10.00000000
O       10.04566500       1.43509500      10.00000000
Mg       8.61057000       0.00000000      10.00000000
O       10.04566500       4.30528500      10.00000000
Mg       8.61057000       2.87019000      10.00000000
O       10.04566500       7.17547500      10.00000000
Mg       8.61057000       5.74038000      10.00000000
O       10.04566500      10.04566500      10.00000000
Mg       8.61057000       8.61057000      10.00000000
O       10.04566500      12.91585500      10.00000000
Mg       8.61057000      11.48076000      10.00000000
O       12.91585500       1.43509500      10.00000000
Mg      11.48076000       0.00000000      10.00000000
O       12.91585500       4.30528500      10.00000000
Mg      11.48076000       2.87019000      10.00000000
O       12.91585500       7.17547500      10.00000000
Mg      11.48076000       5.74038000      10.00000000
O       12.91585500      10.04566500      10.00000000
Mg      11.48076000       8.61057000      10.00000000
O       12.91585500      12.91585500      10.00000000
Mg      11.48076000      11.48076000      10.00000000
Fe       1.43072977       1.29263538      12.16388806
Fe       1.11208729       3.99439111      12.24827115
Fe       1.67919532       7.46924355      12.23748105
Fe       1.36063971      10.22677695      12.18249720
Fe       1.62090386      12.91328030      12.16098455
Fe       4.15185693       1.73579364      12.21446129
Fe       4.58172127       4.40678744      12.19308810
Fe       4.35252432       7.15244245      12.15677273
Fe       4.09567998       9.85123377      12.21466662
Fe       4.33439514      12.60639987      12.20242735
Fe       6.89150215       1.65674473      12.22903707
Fe       7.24496934       4.30080023      12.14040409
Fe       7.06756822       7.03027972      12.18109419
Fe       7.48668370       9.72686336      12.24570468
Fe       7.05762849      13.16598243      12.21629698
Fe      10.31064600       1.62134813      12.22384544
Fe      10.02165472       4.29159473      12.15689503
Fe       9.90755804       7.21010060      12.15569469
Fe      10.19669688       9.83197623      12.20013543
Fe       9.80123257      13.21484193      12.24486039
Fe      13.07825160       1.39798920      12.17227194
Fe      12.73819325       4.04943975      12.20636314
Fe      12.60010871       7.50105855      12.24960177
Fe      12.90340311      10.21764383      12.17714549
Fe      13.26986014      12.95873538      12.20017170
B        5.75969519       8.61046088      12.54886086
B        8.61809058       2.83297981      12.54457802
B        8.61242365       5.71744108      12.56572823
