78
Lattice="14.350950000000001 0.0 0.0 0.0 14.350950000000001 0.0 0.0 0.0 20.0" Properties=species:S:1:pos:R:3 generator=RattleGenerator uuid=59aeec2c-731d-46be-80bb-da507ee84a57 model_energy=-442.52753432258675 uncertainty=0.78793758441614 acquisition_value=-444.10340949141903 time_stamp=14719.102191448212 search_iteration=52 relaxation_steps=100 relax_index=1 final=1 parent_search_iterations="_JSON [24]" parent_uuids="_JSON [\"221cd260-02bf-48d9-8317-5553bbe3f9c3\"]" spawn_uuids="_JSON [\"221cd260-02bf-48d9-8317-5553bbe3f9c3\"]" evaluator_energy="_JSON {\"52\": -442.87529910956556}" iteration=52 database_id=52 pbc="T T F"
O        1.43509500       1.43509500      10.00000000
Mg       0.00000000       0.00000000      10.00000000
O        1.43509500       4.30528500      10.00000000
Mg       0.00000000       2.87019000      10.00000000
O        1.43509500       7.17547500      10.00000000
Mg       0.00000000       5.74038000      10.00000000
O        1.43509500      10.04566500      10.00000000
Mg       0.00000000       8.61057000      10.00000000
O        1.43509500      12.91585500      10.00000000
Mg       0.00000000      11.48076000      10.00000000
O        4.30528500       1.43509500      10.00000000
Mg       2.87019000       0.00000000      10.00000000
O        4.30528500       4.30528500      10.00000000
Mg       2.87019000       2.87019000      10.00000000
O        4.30528500       7.17547500      10.00000000
Mg       2.87019000       5.74038000      10.00000000
O        4.30528500      10.04566500      10.00000000
Mg       2.87019000       8.61057000      10.00000000
O        4.30528500      12.91585500      10.00000000
Mg       2.87019000      11.48076000      10.00000000
O        7.17547500       1.43509500      10.00000000
Mg       5.74038000       0.00000000      10.00000000
O        7.17547500       4.30528500      10.00000000
Mg       5.74038000       2.87019000      10.00000000
O        7.17547500       7.17547500      10.00000000
Mg       5.74038000       5.74038000      10.00000000
O        7.17547500      10.04566500      10.00000000
Mg       5.74038000       8.61057000      10.00000000
O        7.17547500      12.91585500      10.00000000
Mg       5.74038000      11.48076000      10.00000000
O       10.04566500       1.43509500      10.00000000
Mg       8.61057000       0.00000000      10.00000000
O       10.04566500       4.30528500      10.00000000
Mg       8.61057000       2.87019000      10.00000000
O       10.04566500       7.17547500      10.00000000
Mg       8.61057000       5.74038000      10.00000000
O       10.04566500      10.04566500      10.00000000
Mg       8.61057000       8.61057000      10.00000000
O       10.04566500      12.91585500      10.00000000
Mg       8.61057000      11.48076000      10.00000000
O       12.91585500       1.43509500      10.00000000
Mg      11.48076000       0.00000000      10.00000000
O       12.91585500       4.30528500      10.00000000
Mg      11.48076000       2.87019000      10.00000000
O       12.91585500       7.17547500      10.00000000
Mg      11.48076000       5.74038000      10.00000000
O       12.91585500      10.04566500      10.00000000
Mg      11.48076000       8.61057000      10.00000000
O       12.91585500      12.91585500      10.00000000
Mg      11.48076000      11.48076000      10.00000000
Fe       1.18698844       1.13686414      12.29293171
Fe       0.81981158       4.63641521      12.34641298
Fe       2.12690960       6.67347123      12.35792520
Fe       2.10196512      10.63847772      12.34968402
Fe       1.36288751      12.97762467      12.27675833
Fe       3.70012656       1.95158903      12.35343493
Fe       4.20281508       4.42222212      12.28186456
Fe       4.77559398       6.78244565      12.31202982
Fe       4.71267118      10.31152369      12.28348274
Fe       3.85727910      12.48765922      12.32387578
Fe       8.60805099       3.66633041      12.95516794
Fe       6.63927802       4.92470868      12.34519044
Fe       7.26463264       7.25017316      12.24913569
Fe       7.21732196       9.93102371      12.25596107
Fe       6.45409134      12.24561695      12.36047252
Fe      10.62795959       2.23250465      12.37928803
Fe      10.47094529       4.80938223      12.29748104
Fe       9.95348934       7.20406857      12.26135860
Fe       9.98127586       9.98580101      12.26248421
Fe      10.62094611      12.40263264      12.34302936
Fe      12.97420326       1.37816708      12.27490812
Fe      12.64252328       3.91161279      12.28830545
Fe      12.36814565       6.49500551      12.35002687
Fe      12.38784773      10.63924807      12.34428904
Fe      13.10226363      13.11628813      12.27849740
B        5.76959701       8.57217989      12.53576128
B        8.62420697       8.60100067      12.60635089
B        8.58235807       5.69833224      12.53857175
