78
Lattice="14.350950000000001 0.0 0.0 0.0 14.350950000000001 0.0 0.0 0.0 20.0" Properties=species:S:1:pos:R:3 generator=RattleGenerator uuid=bfe09642-1917-4982-bfc5-9e3395173feb model_energy=-443.118199935977 uncertainty=0.5251398368897827 acquisition_value=-444.16847960975656 time_stamp=16013.109887123108 search_iteration=58 relaxation_steps=100 relax_index=1 final=1 parent_search_iterations="_JSON [57]" parent_uuids="_JSON [\"7e13d5c4-a340-4fe7-85f3-7f795cbe2e75\"]" spawn_uuids="_JSON [\"221cd260-02bf-48d9-8317-5553bbe3f9c3\"]" evaluator_energy="_JSON {\"58\": -442.7317934739802}" iteration=58 database_id=58 pbc="T T F"
O        1.43509500       1.43509500      10.00000000
Mg       0.00000000       0.00000000      10.00000000
O        1.43509500       4.30528500      10.00000000
Mg       0.00000000       2.87019000      10.00000000
O        1.43509500       7.17547500      10.00000000
Mg       0.00000000       5.74038000      10.00000000
O        1.43509500      10.04566500      10.00000000
Mg       0.00000000       8.61057000      10.00000000
O        1.43509500      12.91585500      10.00000000
Mg       0.00000000      11.48076000      10.00000000
O        4.30528500       1.43509500      10.00000000
Mg       2.87019000       0.00000000      10.00000000
O        4.30528500       4.30528500      10.00000000
Mg       2.87019000       2.87019000      10.00000000
O        4.30528500       7.17547500      10.00000000
Mg       2.87019000       5.74038000      10.00000000
O        4.30528500      10.04566500      10.00000000
Mg       2.87019000       8.61057000      10.00000000
O        4.30528500      12.91585500      10.00000000
Mg       2.87019000      11.48076000      10.00000000
O        7.17547500       1.43509500      10.00000000
Mg       5.74038000       0.00000000      10.00000000
O        7.17547500       4.30528500      10.00000000
Mg       5.74038000       2.87019000      10.00000000
O        7.17547500       7.17547500      10.00000000
Mg       5.74038000       5.74038000      10.00000000
O        7.17547500      10.04566500      10.00000000
Mg       5.74038000       8.61057000      10.00000000
O        7.17547500      12.91585500      10.00000000
Mg       5.74038000      11.48076000      10.00000000
O       10.04566500       1.43509500      10.00000000
Mg       8.61057000       0.00000000      10.00000000
O       10.04566500       4.30528500      10.00000000
Mg       8.61057000       2.87019000      10.00000000
O       10.04566500       7.17547500      10.00000000
Mg       8.61057000       5.74038000      10.00000000
O       10.04566500      10.04566500      10.00000000
Mg       8.61057000       8.61057000      10.00000000
O       10.04566500      12.91585500      10.00000000
Mg       8.61057000      11.48076000      10.00000000
O       12.91585500       1.43509500      10.00000000
Mg      11.48076000       0.00000000      10.00000000
O       12.91585500       4.30528500      10.00000000
Mg      11.48076000       2.87019000      10.00000000
O       12.91585500       7.17547500      10.00000000
Mg      11.48076000       5.74038000      10.00000000
O       12.91585500      10.04566500      10.00000000
Mg      11.48076000       8.61057000      10.00000000
O       12.91585500      12.91585500      10.00000000
Mg      11.48076000      11.48076000      10.00000000
Fe       1.39844605       1.45472127      12.22117529
Fe       0.83839606       3.80527639      12.42434222
Fe       1.86438740       6.05481066      12.56720767
Fe       2.95286220      11.50464432      13.51400035
Fe       1.98686116      13.46257245      12.43631058
Fe       3.75098942       0.93202473      12.43910998
Fe       4.05014660       4.49075205      12.35228688
Fe       5.05993235       6.78732420      12.60387413
Fe       4.90481956      10.54816800      12.45302784
Fe       4.37850276      12.91138890      12.23733596
Fe       8.64138809       3.72453086      12.92543361
Fe       6.71297174       4.98670813      12.50382994
Fe       7.55673742       7.55417098      12.40320118
Fe       7.19104812      10.01159282      12.22293414
Fe       6.75015647      12.31983842      12.43464425
Fe      10.84331667       2.59741483      12.77241773
Fe      10.48521188       4.95025893      12.43011483
Fe       9.97842757       7.24848860      12.20849886
Fe       9.51445200       9.58587866      12.42293654
Fe       9.97873390      12.80430290      12.27264437
Fe      13.34615414       1.95558594      12.41033959
Fe      12.72554416       4.25034613      12.24199319
Fe      12.31528565       6.69013086      12.42630466
Fe      12.61401648       9.94726212      12.24715797
Fe      12.40450942      12.40525658      12.43957090
B        5.78960368       8.66620213      12.61483829
B        8.59118057      11.39308540      12.63506126
B        8.60385265       5.78888411      12.65109835
