78
Lattice="14.350950000000001 0.0 0.0 0.0 14.350950000000001 0.0 0.0 0.0 20.0" Properties=species:S:1:pos:R:3 generator=RattleGenerator uuid=731449a5-b9c3-4380-94c7-34649aff4244 model_energy=-441.15243842129337 uncertainty=0.7720429438431888 acquisition_value=-442.69652430897975 time_stamp=13247.498404979706 search_iteration=46 relaxation_steps=59 relax_index=1 final=1 parent_search_iterations="_JSON [24]" parent_uuids="_JSON [\"221cd260-02bf-48d9-8317-5553bbe3f9c3\"]" spawn_uuids="_JSON [\"221cd260-02bf-48d9-8317-5553bbe3f9c3\"]" evaluator_energy="_JSON {\"46\": -441.0796804447951}" iteration=46 database_id=46 pbc="T T F"
O        1.43509500       1.43509500      10.00000000
Mg       0.00000000       0.00000000      10.00000000
O        1.43509500       4.30528500      10.00000000
Mg       0.00000000       2.87019000      10.00000000
O        1.43509500       7.17547500      10.00000000
Mg       0.00000000       5.74038000      10.00000000
O        1.43509500      10.04566500      10.00000000
Mg       0.00000000       8.61057000      10.00000000
O        1.43509500      12.91585500      10.00000000
Mg       0.00000000      11.48076000      10.00000000
O        4.30528500       1.43509500      10.00000000
Mg       2.87019000       0.00000000      10.00000000
O        4.30528500       4.30528500      10.00000000
Mg       2.87019000       2.87019000      10.00000000
O        4.30528500       7.17547500      10.00000000
Mg       2.87019000       5.74038000      10.00000000
O        4.30528500      10.04566500      10.00000000
Mg       2.87019000       8.61057000      10.00000000
O        4.30528500      12.91585500      10.00000000
Mg       2.87019000      11.48076000      10.00000000
O        7.17547500       1.43509500      10.00000000
Mg       5.74038000       0.00000000      10.00000000
O        7.17547500       4.30528500      10.00000000
Mg       5.74038000       2.87019000      10.00000000
O        7.17547500       7.17547500      10.00000000
Mg       5.74038000       5.74038000      10.00000000
O        7.17547500      10.04566500      10.00000000
Mg       5.74038000       8.61057000      10.00000000
O        7.17547500      12.91585500      10.00000000
Mg       5.74038000      11.48076000      10.00000000
O       10.04566500       1.43509500      10.00000000
Mg       8.61057000       0.00000000      10.00000000
O       10.04566500       4.30528500      10.00000000
Mg       8.61057000       2.87019000      10.00000000
O       10.04566500       7.17547500      10.00000000
Mg       8.61057000       5.74038000      10.00000000
O       10.04566500      10.04566500      10.00000000
Mg       8.61057000       8.61057000      10.00000000
O       10.04566500      12.91585500      10.00000000
Mg       8.61057000      11.48076000      10.00000000
O       12.91585500       1.43509500      10.00000000
Mg      11.48076000       0.00000000      10.00000000
O       12.91585500       4.30528500      10.00000000
Mg      11.48076000       2.87019000      10.00000000
O       12.91585500       7.17547500      10.00000000
Mg      11.48076000       5.74038000      10.00000000
O       12.91585500      10.04566500      10.00000000
Mg      11.48076000       8.61057000      10.00000000
O       12.91585500      12.91585500      10.00000000
Mg      11.48076000      11.48076000      10.00000000
Fe       0.79723062       1.90752159      12.35859025
Fe       0.81639283       4.40858183      12.32379125
Fe       1.08015261       7.60417575      12.31054331
Fe       0.85897742      10.12803735      12.30157718
Fe       2.01072393      12.41900335      12.34390841
Fe       4.68810552       1.07794490      12.29854369
Fe       4.72198296       4.23170139      12.27523369
Fe       4.97088993       6.67222882      12.37562182
Fe       4.73937500      10.46715435      12.34011408
Fe       4.50710662      12.95874789      12.23391408
Fe       7.08973452       0.86061242      12.30024467
Fe       7.00415279       4.87609390      12.31668629
Fe       7.35104718       7.37670404      12.34871250
Fe       7.13853352      10.01897981      12.33104694
Fe       6.95826491      12.71408640      12.24610371
Fe      10.29577390       0.75913883      12.33959693
Fe      10.42362759       4.83039427      12.33064507
Fe      10.08288449       7.34134079      12.32303071
Fe      10.31737488       9.96222730      12.27842707
Fe      10.18223130      12.58822621      12.24642727
Fe      12.66233901       1.43037620      12.23568381
Fe      12.73380552       4.00809405      12.24712351
Fe      12.43108587       6.50588612      12.35914370
Fe      12.73369505      10.56770091      12.29001781
Fe      12.50358649      13.22335123      12.28249948
B        5.73419807       8.60073341      12.66559141
B        8.72296370       8.78816611      12.68438354
B        8.72014832       5.88520149      12.68343178
