78
Lattice="14.350950000000001 0.0 0.0 0.0 14.350950000000001 0.0 0.0 0.0 20.0" Properties=species:S:1:pos:R:3 generator=RattleGenerator uuid=fbd65cc2-fdb9-4016-bb60-ca40ba49752d model_energy=-443.3226340371756 uncertainty=0.4500623955769167 acquisition_value=-444.2227588283294 time_stamp=18007.280891656876 search_iteration=66 relaxation_steps=100 relax_index=1 final=1 parent_search_iterations="_JSON [55]" parent_uuids="_JSON [\"c221f265-0f12-403e-95a9-e6b424073b6a\"]" spawn_uuids="_JSON [\"221cd260-02bf-48d9-8317-5553bbe3f9c3\"]" evaluator_energy="_JSON {\"66\": -443.1938117013256}" iteration=66 database_id=66 pbc="T T F"
O        1.43509500       1.43509500      10.00000000
Mg       0.00000000       0.00000000      10.00000000
O        1.43509500       4.30528500      10.00000000
Mg       0.00000000       2.87019000      10.00000000
O        1.43509500       7.17547500      10.00000000
Mg       0.00000000       5.74038000      10.00000000
O        1.43509500      10.04566500      10.00000000
Mg       0.00000000       8.61057000      10.00000000
O        1.43509500      12.91585500      10.00000000
Mg       0.00000000      11.48076000      10.00000000
O        4.30528500       1.43509500      10.00000000
Mg       2.87019000       0.00000000      10.00000000
O        4.30528500       4.30528500      10.00000000
Mg       2.87019000       2.87019000      10.00000000
O        4.30528500       7.17547500      10.00000000
Mg       2.87019000       5.74038000      10.00000000
O        4.30528500      10.04566500      10.00000000
Mg       2.87019000       8.61057000      10.00000000
O        4.30528500      12.91585500      10.00000000
Mg       2.87019000      11.48076000      10.00000000
O        7.17547500       1.43509500      10.00000000
Mg       5.74038000       0.00000000      10.00000000
O        7.17547500       4.30528500      10.00000000
Mg       5.74038000       2.87019000      10.00000000
O        7.17547500       7.17547500      10.00000000
Mg       5.74038000       5.74038000      10.00000000
O        7.17547500      10.04566500      10.00000000
Mg       5.74038000       8.61057000      10.00000000
O        7.17547500      12.91585500      10.00000000
Mg       5.74038000      11.48076000      10.00000000
O       10.04566500       1.43509500      10.00000000
Mg       8.61057000       0.00000000      10.00000000
O       10.04566500       4.30528500      10.00000000
Mg       8.61057000       2.87019000      10.00000000
O       10.04566500       7.17547500      10.00000000
Mg       8.61057000       5.74038000      10.00000000
O       10.04566500      10.04566500      10.00000000
Mg       8.61057000       8.61057000      10.00000000
O       10.04566500      12.91585500      10.00000000
Mg       8.61057000      11.48076000      10.00000000
O       12.91585500       1.43509500      10.00000000
Mg      11.48076000       0.00000000      10.00000000
O       12.91585500       4.30528500      10.00000000
Mg      11.48076000       2.87019000      10.00000000
O       12.91585500       7.17547500      10.00000000
Mg      11.48076000       5.74038000      10.00000000
O       12.91585500      10.04566500      10.00000000
Mg      11.48076000       8.61057000      10.00000000
O       12.91585500      12.91585500      10.00000000
Mg      11.48076000      11.48076000      10.00000000
Fe       1.40905603       1.60084039      12.23004280
Fe       1.53371437       4.16070335      12.30380780
Fe       2.07801145       6.54299434      12.44886748
Fe       2.87148049      11.53893134      13.43940605
Fe       1.91399022      13.54799957      12.41915517
Fe       3.73093591       0.94917337      12.42331924
Fe       3.91594085       4.84972787      12.40895022
Fe       4.54217054       7.21369414      12.28620295
Fe       4.85245017      10.69364919      12.37759221
Fe       4.31207867      13.00508256      12.17127699
Fe       7.81551459       4.10374820      12.35526574
Fe       6.14118777       5.64092279      13.20875494
Fe       7.05143488       7.59363933      12.19575618
Fe       7.25727143      10.04171637      12.23271881
Fe       6.67197049      12.40694929      12.40158606
Fe       9.93172251       2.88511569      12.48186657
Fe      10.05822798       5.25635109      12.67489770
Fe       9.54448618       7.55347809      12.36915286
Fe       9.75427804      10.01985479      12.21196672
Fe      10.41247127      12.39255421      12.35806434
Fe      13.39432351       0.94946582      12.41077563
Fe      14.27356080       5.77454182      13.32704250
Fe      11.98828183       6.92317409      12.66506665
Fe      12.09889265      10.54813354      12.47124845
Fe      12.81617132      12.89984933      12.25343985
B        5.61773417       8.90685043      12.66014799
B        8.52820241      11.60787424      12.55485774
B        8.16827376       6.02617407      12.75758088
