78
Lattice="14.350950000000001 0.0 0.0 0.0 14.350950000000001 0.0 0.0 0.0 20.0" Properties=species:S:1:pos:R:3 generator=RattleGenerator uuid=76e64e2d-b85d-4b45-a1c8-a584f6585a10 model_energy=-442.5718954383032 uncertainty=0.5564147292361721 acquisition_value=-443.68472489677555 time_stamp=17104.492851018906 search_iteration=62 relaxation_steps=100 relax_index=1 final=1 parent_search_iterations="_JSON [60]" parent_uuids="_JSON [\"bd9fe83f-9990-4e4b-850a-15604cf96608\"]" spawn_uuids="_JSON [\"d2332eef-67ad-4b52-bbe5-deb738cf844e\"]" evaluator_energy="_JSON {\"62\": -443.1201194957337}" iteration=62 database_id=62 pbc="T T F"
O        1.43509500       1.43509500      10.00000000
Mg       0.00000000       0.00000000      10.00000000
O        1.43509500       4.30528500      10.00000000
Mg       0.00000000       2.87019000      10.00000000
O        1.43509500       7.17547500      10.00000000
Mg       0.00000000       5.74038000      10.00000000
O        1.43509500      10.04566500      10.00000000
Mg       0.00000000       8.61057000      10.00000000
O        1.43509500      12.91585500      10.00000000
Mg       0.00000000      11.48076000      10.00000000
O        4.30528500       1.43509500      10.00000000
Mg       2.87019000       0.00000000      10.00000000
O        4.30528500       4.30528500      10.00000000
Mg       2.87019000       2.87019000      10.00000000
O        4.30528500       7.17547500      10.00000000
Mg       2.87019000       5.74038000      10.00000000
O        4.30528500      10.04566500      10.00000000
Mg       2.87019000       8.61057000      10.00000000
O        4.30528500      12.91585500      10.00000000
Mg       2.87019000      11.48076000      10.00000000
O        7.17547500       1.43509500      10.00000000
Mg       5.74038000       0.00000000      10.00000000
O        7.17547500       4.30528500      10.00000000
Mg       5.74038000       2.87019000      10.00000000
O        7.17547500       7.17547500      10.00000000
Mg       5.74038000       5.74038000      10.00000000
O        7.17547500      10.04566500      10.00000000
Mg       5.74038000       8.61057000      10.00000000
O        7.17547500      12.91585500      10.00000000
Mg       5.74038000      11.48076000      10.00000000
O       10.04566500       1.43509500      10.00000000
Mg       8.61057000       0.00000000      10.00000000
O       10.04566500       4.30528500      10.00000000
Mg       8.61057000       2.87019000      10.00000000
O       10.04566500       7.17547500      10.00000000
Mg       8.61057000       5.74038000      10.00000000
O       10.04566500      10.04566500      10.00000000
Mg       8.61057000       8.61057000      10.00000000
O       10.04566500      12.91585500      10.00000000
Mg       8.61057000      11.48076000      10.00000000
O       12.91585500       1.43509500      10.00000000
Mg      11.48076000       0.00000000      10.00000000
O       12.91585500       4.30528500      10.00000000
Mg      11.48076000       2.87019000      10.00000000
O       12.91585500       7.17547500      10.00000000
Mg      11.48076000       5.74038000      10.00000000
O       12.91585500      10.04566500      10.00000000
Mg      11.48076000       8.61057000      10.00000000
O       12.91585500      12.91585500      10.00000000
Mg      11.48076000      11.48076000      10.00000000
Fe       0.78251300       2.02500890      12.49281382
Fe       1.27578176       4.41913809      12.27106194
Fe       2.04083137       6.78798524      12.42233131
Fe       1.94087696       9.31881347      12.52015480
Fe       2.81698131      11.38423876      13.51604814
Fe       2.76946175       2.95121001      13.53360397
Fe       3.73146779       4.93152777      12.46925101
Fe       4.48613298       7.31225415      12.27013624
Fe       4.35051400       9.87086117      12.30332759
Fe       4.81366176      12.27724487      12.47146400
Fe       7.73723901       0.88604487      12.45586164
Fe       7.48767427       4.58556235      12.31322834
Fe       7.13776973       7.07980466      12.26313788
Fe       7.32279214      10.18979957      12.26671858
Fe       7.21193195      12.76572929      12.24632267
Fe      10.06445931       1.81762879      12.25669883
Fe       9.98888570       4.33706563      12.27610975
Fe      10.22990631       7.49593296      12.26393837
Fe       9.87155526      10.03219322      12.26291512
Fe       9.60114094      12.50380055      12.41842894
Fe      12.59741855       1.97039242      12.37223828
Fe      13.06313061       4.38314937      12.26400559
Fe      12.64047113       6.88192528      12.30238592
Fe      12.11698534       9.23984220      12.63295733
Fe      11.47282178      11.40789998      13.53552101
B        5.97214499       8.69274299      12.59394247
B        8.52541423       8.54749817      12.56499394
B        8.87188300       6.03131069      12.62103686
