78
Lattice="14.350950000000001 0.0 0.0 0.0 14.350950000000001 0.0 0.0 0.0 20.0" Properties=species:S:1:pos:R:3 generator=RattleGenerator uuid=f2a6891b-6751-45b2-baa4-325b7f477542 model_energy=-441.8266734179529 uncertainty=0.6881026595512348 acquisition_value=-443.2028787370554 time_stamp=13771.423703432083 search_iteration=53 relaxation_steps=100 relax_index=1 final=1 parent_search_iterations="_JSON [26]" parent_uuids="_JSON [\"56c7a6ec-3a4a-4105-a948-a614dd1e1743\"]" spawn_uuids="_JSON [\"0010997d-fbb0-48c8-ae63-9f70dd2582d5\"]" evaluator_energy="_JSON {\"53\": -441.9463873089171}" iteration=53 database_id=53 pbc="T T F"
O        1.43509500       1.43509500      10.00000000
Mg       0.00000000       0.00000000      10.00000000
O        1.43509500       4.30528500      10.00000000
Mg       0.00000000       2.87019000      10.00000000
O        1.43509500       7.17547500      10.00000000
Mg       0.00000000       5.74038000      10.00000000
O        1.43509500      10.04566500      10.00000000
Mg       0.00000000       8.61057000      10.00000000
O        1.43509500      12.91585500      10.00000000
Mg       0.00000000      11.48076000      10.00000000
O        4.30528500       1.43509500      10.00000000
Mg       2.87019000       0.00000000      10.00000000
O        4.30528500       4.30528500      10.00000000
Mg       2.87019000       2.87019000      10.00000000
O        4.30528500       7.17547500      10.00000000
Mg       2.87019000       5.74038000      10.00000000
O        4.30528500      10.04566500      10.00000000
Mg       2.87019000       8.61057000      10.00000000
O        4.30528500      12.91585500      10.00000000
Mg       2.87019000      11.48076000      10.00000000
O        7.17547500       1.43509500      10.00000000
Mg       5.74038000       0.00000000      10.00000000
O        7.17547500       4.30528500      10.00000000
Mg       5.74038000       2.87019000      10.00000000
O        7.17547500       7.17547500      10.00000000
Mg       5.74038000       5.74038000      10.00000000
O        7.17547500      10.04566500      10.00000000
Mg       5.74038000       8.61057000      10.00000000
O        7.17547500      12.91585500      10.00000000
Mg       5.74038000      11.48076000      10.00000000
O       10.04566500       1.43509500      10.00000000
Mg       8.61057000       0.00000000      10.00000000
O       10.04566500       4.30528500      10.00000000
Mg       8.61057000       2.87019000      10.00000000
O       10.04566500       7.17547500      10.00000000
Mg       8.61057000       5.74038000      10.00000000
O       10.04566500      10.04566500      10.00000000
Mg       8.61057000       8.61057000      10.00000000
O       10.04566500      12.91585500      10.00000000
Mg       8.61057000      11.48076000      10.00000000
O       12.91585500       1.43509500      10.00000000
Mg      11.48076000       0.00000000      10.00000000
O       12.91585500       4.30528500      10.00000000
Mg      11.48076000       2.87019000      10.00000000
O       12.91585500       7.17547500      10.00000000
Mg      11.48076000       5.74038000      10.00000000
O       12.91585500      10.04566500      10.00000000
Mg      11.48076000       8.61057000      10.00000000
O       12.91585500      12.91585500      10.00000000
Mg      11.48076000      11.48076000      10.00000000
Fe       1.51138518       1.50089130      12.20438268
Fe       1.83582904       4.08985976      12.21982290
Fe       2.10491184       6.94745297      12.23472987
Fe       0.68572679       8.94554150      12.64606379
Fe       1.20743847      13.38574221      12.19752586
Fe       4.13477490       1.59246500      12.19432143
Fe       4.39113614       4.20910497      12.20003870
Fe       4.60543800       6.77008487      12.18144576
Fe       3.65334568       8.90571479      12.71564606
Fe       3.76300395      13.39036889      12.18716860
Fe       6.72693591       1.85741838      12.18441484
Fe       7.05836590       4.39660902      12.22717376
Fe       7.24770797       7.20322230      12.25762608
Fe       7.12170605       9.79100227      12.26629354
Fe       5.62365498      14.37098286      13.29432819
Fe      10.60029983       1.70799382      12.19626954
Fe       9.99731700       4.27649298      12.21384212
Fe       9.97236212       7.16568698      12.24297663
Fe      10.24818567       9.76301774      12.23401511
Fe      10.51055758      13.36363113      12.19900255
Fe      13.05139506       1.25131055      12.20040190
Fe      12.48389529       3.74560966      12.21014787
Fe      12.88222011       7.53093392      12.26645979
Fe      12.78404027      10.00421045      12.22379498
Fe      12.97874530      13.04085016      12.20649613
B        5.65335827       8.46396687      12.64056978
B        8.59173075       5.70172767      12.63249971
B        8.64726292       8.61462803      12.69252527
