78
Lattice="14.350950000000001 0.0 0.0 0.0 14.350950000000001 0.0 0.0 0.0 20.0" Properties=species:S:1:pos:R:3 generator=RattleGenerator uuid=30df7ef9-daaf-4059-bab4-559506c51058 model_energy=-421.04102984153997 uncertainty=13.869765982998771 acquisition_value=-448.78056180753754 time_stamp=7152.358322143555 search_iteration=26 relaxation_steps=50 relax_index=1 final=1 parent_search_iterations="_JSON [24]" parent_uuids="_JSON [\"41f00516-5583-45dd-bbb1-7c01ac1c1175\"]" spawn_uuids="_JSON [\"41f00516-5583-45dd-bbb1-7c01ac1c1175\"]" evaluator_energy="_JSON {\"26\": -427.85237543419584}" iteration=26 database_id=26 pbc="T T F"
O        1.43509500       1.43509500      10.00000000
Mg       0.00000000       0.00000000      10.00000000
O        1.43509500       4.30528500      10.00000000
Mg       0.00000000       2.87019000      10.00000000
O        1.43509500       7.17547500      10.00000000
Mg       0.00000000       5.74038000      10.00000000
O        1.43509500      10.04566500      10.00000000
Mg       0.00000000       8.61057000      10.00000000
O        1.43509500      12.91585500      10.00000000
Mg       0.00000000      11.48076000      10.00000000
O        4.30528500       1.43509500      10.00000000
Mg       2.87019000       0.00000000      10.00000000
O        4.30528500       4.30528500      10.00000000
Mg       2.87019000       2.87019000      10.00000000
O        4.30528500       7.17547500      10.00000000
Mg       2.87019000       5.74038000      10.00000000
O        4.30528500      10.04566500      10.00000000
Mg       2.87019000       8.61057000      10.00000000
O        4.30528500      12.91585500      10.00000000
Mg       2.87019000      11.48076000      10.00000000
O        7.17547500       1.43509500      10.00000000
Mg       5.74038000       0.00000000      10.00000000
O        7.17547500       4.30528500      10.00000000
Mg       5.74038000       2.87019000      10.00000000
O        7.17547500       7.17547500      10.00000000
Mg       5.74038000       5.74038000      10.00000000
O        7.17547500      10.04566500      10.00000000
Mg       5.74038000       8.61057000      10.00000000
O        7.17547500      12.91585500      10.00000000
Mg       5.74038000      11.48076000      10.00000000
O       10.04566500       1.43509500      10.00000000
Mg       8.61057000       0.00000000      10.00000000
O       10.04566500       4.30528500      10.00000000
Mg       8.61057000       2.87019000      10.00000000
O       10.04566500       7.17547500      10.00000000
Mg       8.61057000       5.74038000      10.00000000
O       10.04566500      10.04566500      10.00000000
Mg       8.61057000       8.61057000      10.00000000
O       10.04566500      12.91585500      10.00000000
Mg       8.61057000      11.48076000      10.00000000
O       12.91585500       1.43509500      10.00000000
Mg      11.48076000       0.00000000      10.00000000
O       12.91585500       4.30528500      10.00000000
Mg      11.48076000       2.87019000      10.00000000
O       12.91585500       7.17547500      10.00000000
Mg      11.48076000       5.74038000      10.00000000
O       12.91585500      10.04566500      10.00000000
Mg      11.48076000       8.61057000      10.00000000
O       12.91585500      12.91585500      10.00000000
Mg      11.48076000      11.48076000      10.00000000
Fe       1.43488265       1.43588549      13.09413037
Fe       1.43693987       4.30392024      13.09580676
Fe       1.43839706       7.17551736      13.09581965
Fe       1.43582014      10.04633238      13.09506738
Fe       1.43670611      12.91545589      13.09539671
Fe       4.30244295       1.43592449      13.09562379
Fe       4.30558018       4.30675970      13.09615754
Fe       4.30343673       7.17318957      13.09412093
Fe       4.30232383      10.04664779      13.09533206
Fe       4.30654269      12.91599051      13.09436958
Fe       7.19444212       1.45265051      13.08786645
Fe       7.18692443       4.28638061      13.08928597
Fe       7.18980035       7.19337752      13.08980534
Fe       7.19362912      10.02602659      13.08907773
Fe       7.17586391      12.91538209      13.09522570
Fe      10.03236327       1.44940125      13.08827543
Fe      10.04859575       4.30403252      13.08198106
Fe      10.04798305       7.17863949      13.08191714
Fe      10.03171813      10.02795855      13.08778431
Fe      10.04630406      12.91656307      13.09550625
Fe      12.91985908       1.43157482      13.09573900
Fe      12.90273943       4.31965955      13.08926234
Fe      12.90143800       7.15941747      13.08956578
Fe      12.91902830      10.04910794      13.09582332
Fe      12.91276682      12.91544197      13.09493638
B        8.61458613       2.87058797      12.75981901
B       11.47623799       5.73991643      12.78150611
B        8.61530051       8.60966016      12.74931308
