78
Lattice="14.350950000000001 0.0 0.0 0.0 14.350950000000001 0.0 0.0 0.0 20.0" Properties=species:S:1:pos:R:3 generator=RattleGenerator uuid=3790fb32-711a-4c85-834b-bcaa48b5c4f3 model_energy=-442.7129326169057 uncertainty=0.49631226939810114 acquisition_value=-443.70555715570185 time_stamp=17320.13542699814 search_iteration=63 relaxation_steps=100 relax_index=1 final=1 parent_search_iterations="_JSON [37]" parent_uuids="_JSON [\"bfc19380-8c4a-4372-9fc5-ee0e738ac99f\"]" spawn_uuids="_JSON [\"221cd260-02bf-48d9-8317-5553bbe3f9c3\"]" evaluator_energy="_JSON {\"63\": -442.11440643372373}" iteration=63 database_id=63 pbc="T T F"
O        1.43509500       1.43509500      10.00000000
Mg       0.00000000       0.00000000      10.00000000
O        1.43509500       4.30528500      10.00000000
Mg       0.00000000       2.87019000      10.00000000
O        1.43509500       7.17547500      10.00000000
Mg       0.00000000       5.74038000      10.00000000
O        1.43509500      10.04566500      10.00000000
Mg       0.00000000       8.61057000      10.00000000
O        1.43509500      12.91585500      10.00000000
Mg       0.00000000      11.48076000      10.00000000
O        4.30528500       1.43509500      10.00000000
Mg       2.87019000       0.00000000      10.00000000
O        4.30528500       4.30528500      10.00000000
Mg       2.87019000       2.87019000      10.00000000
O        4.30528500       7.17547500      10.00000000
Mg       2.87019000       5.74038000      10.00000000
O        4.30528500      10.04566500      10.00000000
Mg       2.87019000       8.61057000      10.00000000
O        4.30528500      12.91585500      10.00000000
Mg       2.87019000      11.48076000      10.00000000
O        7.17547500       1.43509500      10.00000000
Mg       5.74038000       0.00000000      10.00000000
O        7.17547500       4.30528500      10.00000000
Mg       5.74038000       2.87019000      10.00000000
O        7.17547500       7.17547500      10.00000000
Mg       5.74038000       5.74038000      10.00000000
O        7.17547500      10.04566500      10.00000000
Mg       5.74038000       8.61057000      10.00000000
O        7.17547500      12.91585500      10.00000000
Mg       5.74038000      11.48076000      10.00000000
O       10.04566500       1.43509500      10.00000000
Mg       8.61057000       0.00000000      10.00000000
O       10.04566500       4.30528500      10.00000000
Mg       8.61057000       2.87019000      10.00000000
O       10.04566500       7.17547500      10.00000000
Mg       8.61057000       5.74038000      10.00000000
O       10.04566500      10.04566500      10.00000000
Mg       8.61057000       8.61057000      10.00000000
O       10.04566500      12.91585500      10.00000000
Mg       8.61057000      11.48076000      10.00000000
O       12.91585500       1.43509500      10.00000000
Mg      11.48076000       0.00000000      10.00000000
O       12.91585500       4.30528500      10.00000000
Mg      11.48076000       2.87019000      10.00000000
O       12.91585500       7.17547500      10.00000000
Mg      11.48076000       5.74038000      10.00000000
O       12.91585500      10.04566500      10.00000000
Mg      11.48076000       8.61057000      10.00000000
O       12.91585500      12.91585500      10.00000000
Mg      11.48076000      11.48076000      10.00000000
Fe       1.31987062       1.25837450      12.25671387
Fe       1.42765755       4.45637452      12.26369742
Fe       2.61932470       6.64637470      12.48247322
Fe       1.98590242      10.62268404      12.44741013
Fe       1.38634513      13.05684856      12.26760460
Fe       4.38452898       1.36200457      12.27367361
Fe       4.12342081       4.50014974      12.28113484
Fe       4.96890673       6.74625764      12.39442808
Fe       4.44410559      10.06109731      12.26113829
Fe       3.74223948      12.43322454      12.43468622
Fe       6.96716915       1.50855619      12.32654418
Fe       6.69130188       4.89492644      12.41284256
Fe       7.33409715       7.30078204      12.22809139
Fe       7.17469668       9.90799780      12.22186084
Fe       8.61979234      14.35607285      13.54427054
Fe      10.64705525       0.88082480      12.46725550
Fe      10.47157849       4.84437399      12.41542092
Fe       9.85797291       7.18991329      12.19380448
Fe       9.78309035      10.30349115      12.24136970
Fe      10.08485437      12.83353012      12.28236156
Fe      13.10563074       1.39480850      12.25707205
Fe      13.04546231       4.53150737      12.27509192
Fe      12.13932269       6.76358091      12.49517323
Fe      14.53853037       6.60023989      12.52498389
Fe      12.47787984      13.40449490      12.42547909
B        5.76346978       8.55087160      12.59733424
B        8.69354226       8.70924149      12.63401520
B        8.57402842       5.70872872      12.56463030
