78
Lattice="14.350950000000001 0.0 0.0 0.0 14.350950000000001 0.0 0.0 0.0 20.0" Properties=species:S:1:pos:R:3 generator=RattleGenerator uuid=5a28963c-ce77-4741-bb5e-2a901f4d196e model_energy=-444.09263045455305 uncertainty=0.601644375759805 acquisition_value=-445.29591920607265 time_stamp=18221.085433244705 search_iteration=67 relaxation_steps=100 relax_index=1 final=1 parent_search_iterations="_JSON [52]" parent_uuids="_JSON [\"59aeec2c-731d-46be-80bb-da507ee84a57\"]" spawn_uuids="_JSON [\"221cd260-02bf-48d9-8317-5553bbe3f9c3\"]" evaluator_energy="_JSON {\"67\": -444.8715075613203}" iteration=67 database_id=67 pbc="T T F"
O        1.43509500       1.43509500      10.00000000
Mg       0.00000000       0.00000000      10.00000000
O        1.43509500       4.30528500      10.00000000
Mg       0.00000000       2.87019000      10.00000000
O        1.43509500       7.17547500      10.00000000
Mg       0.00000000       5.74038000      10.00000000
O        1.43509500      10.04566500      10.00000000
Mg       0.00000000       8.61057000      10.00000000
O        1.43509500      12.91585500      10.00000000
Mg       0.00000000      11.48076000      10.00000000
O        4.30528500       1.43509500      10.00000000
Mg       2.87019000       0.00000000      10.00000000
O        4.30528500       4.30528500      10.00000000
Mg       2.87019000       2.87019000      10.00000000
O        4.30528500       7.17547500      10.00000000
Mg       2.87019000       5.74038000      10.00000000
O        4.30528500      10.04566500      10.00000000
Mg       2.87019000       8.61057000      10.00000000
O        4.30528500      12.91585500      10.00000000
Mg       2.87019000      11.48076000      10.00000000
O        7.17547500       1.43509500      10.00000000
Mg       5.74038000       0.00000000      10.00000000
O        7.17547500       4.30528500      10.00000000
Mg       5.74038000       2.87019000      10.00000000
O        7.17547500       7.17547500      10.00000000
Mg       5.74038000       5.74038000      10.00000000
O        7.17547500      10.04566500      10.00000000
Mg       5.74038000       8.61057000      10.00000000
O        7.17547500      12.91585500      10.00000000
Mg       5.74038000      11.48076000      10.00000000
O       10.04566500       1.43509500      10.00000000
Mg       8.61057000       0.00000000      10.00000000
O       10.04566500       4.30528500      10.00000000
Mg       8.61057000       2.87019000      10.00000000
O       10.04566500       7.17547500      10.00000000
Mg       8.61057000       5.74038000      10.00000000
O       10.04566500      10.04566500      10.00000000
Mg       8.61057000       8.61057000      10.00000000
O       10.04566500      12.91585500      10.00000000
Mg       8.61057000      11.48076000      10.00000000
O       12.91585500       1.43509500      10.00000000
Mg      11.48076000       0.00000000      10.00000000
O       12.91585500       4.30528500      10.00000000
Mg      11.48076000       2.87019000      10.00000000
O       12.91585500       7.17547500      10.00000000
Mg      11.48076000       5.74038000      10.00000000
O       12.91585500      10.04566500      10.00000000
Mg      11.48076000       8.61057000      10.00000000
O       12.91585500      12.91585500      10.00000000
Mg      11.48076000      11.48076000      10.00000000
Fe       1.29910348       1.30825650      12.21691637
Fe       1.93501941       3.70047839      12.43493387
Fe       2.86873406       5.66078564      13.58372056
Fe       2.01385984      10.68535843      12.44737162
Fe       1.31422922      13.07109477      12.22708291
Fe       3.69747707       1.93032745      12.47533301
Fe       4.29456069       4.29314112      12.21177273
Fe       4.78438262       6.68099227      12.35282343
Fe       4.54579241      10.04406060      12.27631425
Fe       3.75630064      12.40873009      12.41167749
Fe       6.58556060       4.95224283      12.60034941
Fe       6.20751430       7.00309798      14.16136373
Fe       7.30764488       7.23167797      12.15927381
Fe       7.17693668       9.83471374      12.24243219
Fe       8.29315179      11.89393117      12.88671910
Fe      10.67859253       1.93829936      12.43930989
Fe      10.02719215       4.37672628      12.23787289
Fe       9.89835357       6.96961473      12.29332953
Fe       9.88542395      10.14315334      12.22859944
Fe      10.62979320      12.47656166      12.39780804
Fe      13.07044735       1.29476610      12.21805789
Fe      12.39746542       3.69043643      12.41578252
Fe      11.55382350       5.64529533      13.58223679
Fe      12.37286576      10.70140780      12.44394868
Fe      13.07025251      13.06975452      12.21284441
B        5.76434989       8.42926319      12.67748990
B        8.70128198       8.58065959      12.55779321
B        8.47600833       5.65742967      12.56485246
